Step Temp v_strain v_sigmaxx v_sigmayy PotEng KinEng Lx Ly Volume
     100     327.3286        5e-05    0.1214996  -0.18863815   -105.69418    2.3270798    8.4364722    8.4011617      584.374
     200    301.55267       0.0001 -0.037571816  -0.13034755   -105.48936    2.1438308    8.3797879    8.4015818    580.47663
     300    232.54151      0.00015  -0.18638016 -0.099271352   -105.23949    1.6532092    8.4259641    8.4020018    583.70449
     400    334.81222       0.0002   0.39726726 -0.078774293   -105.86226    2.3802832     8.386359    8.4024219    580.98991
     500    311.31484      0.00025  -0.60736823   -0.2906689   -105.65802    2.2132331    8.4160962    8.4028419     583.0792
     600    302.48437       0.0003    0.5918462   0.35238255   -105.78907    2.1504545    8.4142499     8.403262    582.98042
     700    258.21227      0.00035  -0.33456085   0.43913278   -105.66968    1.8357105    8.4214076    8.4036821    583.50551
     800    284.86256       0.0004  -0.12094786   0.92724327   -105.77254    2.0251756    8.4502849    8.4041021    585.53564
     900    276.42917      0.00045   0.72070106   0.26942076   -105.27709    1.9652201    8.4137794    8.4045222    583.03525
    1000    322.61848       0.0005    -1.019346  -0.16836741   -105.29256    2.2935942    8.3703666    8.4049422    580.05593
    1100    317.26066      0.00055   0.69590585   0.39814321   -105.38847    2.2555037     8.473839    8.4053623    587.25579
    1200    315.49896       0.0006  0.046622355   0.28739846   -105.90455    2.2429793    8.3590775    8.4057824    579.33151
    1300    262.75155      0.00065  -0.85241586 -0.027491112   -106.06879    1.8679817    8.4238105    8.4062024    583.84705
    1400    242.20782       0.0007    1.4012894   0.92043135   -105.72476      1.72193    8.4473672    8.4066225      585.509
    1500    319.35353      0.00075   -1.0219785   0.20644477   -105.75724    2.2703826    8.3225254    8.4070425    576.88472
    1600    372.44228       0.0008   -0.4273394  -0.34675753   -105.83382    2.6478069    8.4952141    8.4074626    588.88424
    1700    282.72039      0.00085     1.898326    0.3585017   -105.32454    2.0099464    8.4184332    8.4078826    583.59098
    1800    286.60075       0.0009   -2.0160687  -0.39428339   -105.57363     2.037533    8.3135923    8.4083027    576.35189
    1900     232.6118      0.00095   0.63447688   0.39342183   -105.64019    1.6537089    8.5078239    8.4087228    589.84674
    2000    279.72539        0.001    1.5820413   0.87760949    -105.9833     1.988654    8.3376179    8.4091428    578.07525
    2100    259.95441      0.00105   -3.2528762  -0.47891724   -105.33838    1.8480959    8.3762983    8.4095629    580.78611
    2200     312.7285       0.0011    2.8707958   0.10224967   -105.39158    2.2232832    8.5198118    8.4099829    590.76639
    2300    316.38853      0.00115  -0.68462845 -0.056205928     -105.415    2.2493035    8.2765575     8.410403    573.92772
    2400    311.07932       0.0012   -1.7128811  -0.63993874   -105.64897    2.2115587    8.4338854     8.410823    584.86664
    2500    278.97526      0.00125    2.3127313   0.35904626   -105.72778    1.9833211    8.5219571    8.4112431    591.00368
    2600    282.66156       0.0013  -0.84242976   -0.3815614   -105.71103    2.0095281    8.2616946    8.4116632    572.98291
    2700    305.76936      0.00135   -1.2255782  -0.23775882   -105.58244    2.1738085    8.4838252    8.4120832    588.41798
    2800    297.88937       0.0014    1.7173839   0.82210562   -104.97492    2.1177873    8.4585954    8.4125033     586.6974
    2900    321.63645      0.00145  -0.51319301  -0.55380516   -105.21423    2.2866125    8.3168881    8.4129233    576.89722
    3000    276.20341       0.0015  -0.87690157  -0.15953698   -105.50058    1.9636151    8.4689526    8.4133434    587.47444
    3100    269.38584      0.00155    1.7524715   0.80678956   -105.61542    1.9151469      8.40471    8.4137635    583.04717
    3200    341.17191       0.0016   -1.6363386  0.082953453   -105.88323    2.4254962    8.3347223    8.4141835    578.22089
    3300    314.72722      0.00165   0.10983744   0.41817974      -105.59    2.2374927    8.4946477    8.4146036    589.34512
    3400    361.20155       0.0017    1.3452112   0.45635109   -105.64281    2.5678931    8.4025584    8.4150236    582.98521
    3500    407.12083      0.00175   -1.1802368 -0.018382473   -105.59525    2.8943474    8.3860197    8.4154437    581.86677
    3600    331.46276       0.0018   0.13916826   0.21735486   -105.51333    2.3564708     8.427332    8.4158637    584.76243
    3700    242.09924      0.00185   0.30456158   0.46636208   -105.41607     1.721158    8.4275022    8.4162838    584.80342
    3800    293.53394       0.0019   0.15249009    0.1123777   -105.76599    2.0868232    8.4031513    8.4167039    583.14276
    3900    298.22573      0.00195  -0.55698762    0.3691897   -105.65069    2.1201785    8.4183407    8.4171239      584.226
    4000    358.19421        0.002    1.0156719   0.23648958   -105.59061     2.546513     8.411787     8.417544    583.80031
    4100    318.82798      0.00205   -1.1299147  -0.22860856   -105.27224    2.2666463    8.3807571     8.417964    581.67578
    4200    331.99551       0.0021   0.23770152   0.27643984   -105.62862    2.3602583    8.4617674    8.4183841    587.32769
    4300    293.15906      0.00215     0.582327    0.6026562   -105.50342     2.084158    8.3879725    8.4188042    582.23467
    4400    302.68587       0.0022  -0.71646783   0.18207015   -105.69687    2.1518871    8.4165277    8.4192242    584.24593
    4500    279.92275      0.00225   0.75950545   0.77619724    -105.7231    1.9900571    8.4281531    8.4196443    585.08211
    4600     332.1606       0.0023  -0.52546615   0.33389867   -105.82361     2.361432    8.3379562    8.4200643    578.84952
    4700    334.70786      0.00235  -0.63231979  0.015175903   -105.31893    2.3795413     8.504559    8.4204844    590.44511
    4800    350.95195       0.0024    1.8386159   0.65455787   -105.42493    2.4950255    8.4437296    8.4209044    586.25116
    4900    311.77199      0.00245   -1.4737485   0.71856404   -105.59629    2.2164831    8.3005874    8.4213245    576.34149
    5000    319.31365       0.0025  -0.26748841   0.65141559   -105.80727    2.2700991    8.4808074    8.4217446    588.88423
    5100    300.13325      0.00255    1.7247417   0.41550618   -105.71639    2.1337397    8.3860707    8.4221646    582.33501
    5200    277.68443       0.0026   -1.6950724  -0.19058938   -105.60966    1.9741441    8.3397286    8.4225847    579.14587
    5300    255.03995      0.00265    0.3150627   0.97529241   -105.52317    1.8131575    8.4779832    8.4230047    588.77621
    5400    348.43437       0.0027    1.2840856   0.59340365   -105.77359    2.4771273     8.342744    8.4234248    579.41306
    5500      285.128      0.00275   -2.2628421 -0.019719535   -105.16646    2.0270628    8.3951081    8.4238448    583.07888
    5600    365.10269       0.0028    1.8195314   0.59320041   -105.44772    2.5956275    8.4633688    8.4242649    587.84921
    5700    318.53257      0.00285  -0.37586732  0.074560838   -105.58779    2.2645461    8.3260243     8.424685    578.33837
    5800    254.56255       0.0029   -0.5578546     0.268461   -105.57021    1.8097636    8.3813549     8.425105    582.21074
    5900    265.86119      0.00295   0.79054358    0.1747122   -105.54083    1.8900891    8.3905868    8.4255251     582.8811
    6000    328.73874        0.003  -0.73761489    0.3934513   -105.67214    2.3371049     8.346621    8.4259451    579.85576
    6100     312.7834      0.00305 0.0090823866   0.63155677   -105.49575    2.2236735    8.4519259    8.4263652    587.20077
    6200     305.5941       0.0031   0.88922052   0.68472132   -105.21844    2.1725626    8.3601185    8.4267853    580.85138
    6300    380.61237      0.00315   -1.1479841  -0.43180245   -105.76287    2.7058905    8.4127363    8.4272053    584.53633
    6400     304.2414       0.0032   0.89097371   0.96612008   -105.75321    2.1629458    8.4526972    8.4276254    587.34218
    6500    283.37228      0.00325   0.29103004   0.71330424   -105.71085    2.0145808    8.2899506    8.4280454    576.06232
    6600    309.18413       0.0033   -1.7287949   0.53485429   -105.66447    2.1980852    8.4098166    8.4284655    584.42084
    6700    318.96615      0.00335    1.9676453   0.53756667   -105.42706    2.2676286     8.451607    8.4288855    587.35424
    6800    302.98601       0.0034  -0.84967738   0.67211695   -105.12422    2.1540209    8.3318313    8.4293056    579.05915
    6900    316.49602      0.00345  -0.45274051   0.34539694   -105.26988    2.2500677    8.4210557    8.4297257    585.28938
    7000    321.81442       0.0035   0.96352518    0.9036227    -105.7276    2.2878778    8.4021582    8.4301457    584.00504
    7100    301.13787      0.00355  -0.56779758   0.21093351   -105.90824    2.1408819    8.3315784    8.4305658    579.12814
    7200    283.28407       0.0036  -0.20900532   0.91534604    -105.8054    2.0139537    8.4115615    8.4309858    584.71689
    7300    289.58783      0.00365   0.63709194   0.57441417   -105.45116    2.0587691    8.3778027    8.4314059    582.39922
    7400    281.23721       0.0037    -0.847317   0.53854101   -104.83926     1.999402    8.3840083     8.431826    582.85965
    7500    333.22789      0.00375    0.5653816   0.95513965   -105.13142    2.3690197     8.418791     8.432246    585.30692
    7600     299.1285       0.0038   0.22674626 -0.0025345166   -105.22062    2.1265967    8.3648965    8.4326661    581.58893
    7700    319.67538      0.00385  -0.77081307   0.50266549   -105.74539    2.2726707    8.3935683    8.4330861    583.61148
    7800    283.44925       0.0039   0.97251665    1.1442671   -105.75585     2.015128    8.4028391    8.4335062    584.28519
    7900    306.95576      0.00395  -0.47584985   0.47630494   -105.76878    2.1822431    8.3477218    8.4339262    580.48156
    8000    370.42271        0.004  -0.20784772   0.54324925   -105.80886    2.6334491    8.4201834    8.4343463    585.54953
    8100    296.17981      0.00405   0.81004511   0.50256181   -105.31877    2.1056335    8.3921324    8.4347664     583.6279
    8200    324.40073       0.0041   -1.3853853   0.40093512     -105.545    2.3062647    8.4059544    8.4351864    584.61826
    8300    308.87226      0.00415    1.1624532    1.0660646   -105.70004     2.195868    8.4706555    8.4356065    589.14744
    8400    251.97863       0.0042  0.041628296   0.95716509   -105.61492    1.7913937    8.3108224    8.4360265    578.05957
    8500    287.07056      0.00425    -0.971131   0.94904177   -105.70149     2.040873    8.4411594    8.4364466     587.1544
    8600    283.36794       0.0043    1.0214703   0.84693094   -105.55205      2.01455    8.4019616    8.4368667    584.45697
    8700    276.31804      0.00435  -0.47208254   0.53492347   -105.48327      1.96443    8.3698109    8.4372867    582.24948
    8800    267.29608       0.0044  -0.28755429   0.39230308   -105.38845    1.9002902    8.4164778    8.4377068    585.52504
    8900    328.84492      0.00445   0.75922952   0.57905426   -105.44778    2.3378598    8.4206584    8.4381268    585.84504
    9000    353.58579       0.0045   -1.1802176   0.45744814   -105.37697    2.5137503    8.4039271    8.4385469    584.71011
    9100    294.18049      0.00455    1.4028503    0.2254473   -105.43766    2.0914197    8.4586338    8.4389669    588.54567
    9200    276.51076       0.0046  -0.79142911    0.9379755   -105.44997    1.9658001    8.3452145     8.439387    580.68294
    9300    319.54846      0.00465  -0.20714694    0.8673211   -105.82369    2.2717684     8.426317    8.4398071    586.35546
    9400    302.21277       0.0047   0.60375343    1.6105346   -105.81229    2.1485237    8.4444394    8.4402271    587.64578
    9500    343.65858      0.00475   0.14744398   0.81907255   -105.79807    2.4431747    8.3258357    8.4406472    579.42102
    9600    386.13915       0.0048   -1.1484846   0.80604349   -105.45379    2.7451821    8.4409713    8.4410672    587.46289
    9700    316.58984      0.00485    1.1306996    0.8351825   -105.15101    2.2507347    8.4533358    8.4414873     588.3527
    9800    333.12326       0.0049  -0.24914559    1.1514849   -105.64368    2.3682759    8.3966938    8.4419073    584.43949
    9900    284.99549      0.00495   -0.3756816   0.65309445   -105.64098    2.0261207    8.4149897    8.4423274     585.7421
   10000     307.7491        0.005   0.69732999   0.99871529   -105.86956    2.1878831    8.4014429    8.4427475    584.82825
   10100    280.67082      0.00505  -0.82871227   0.69930498   -105.61985    1.9953753    8.3856738    8.4431675    583.75959
   10200    362.83649       0.0051   0.63721371    1.0436635   -105.47717    2.5795164    8.4258302    8.4435876    586.58422
   10300    344.27908      0.00515  -0.29042312   0.44672063   -105.29105     2.447586    8.4181734    8.4440076    586.08033
   10400    280.62834       0.0052  0.075154332   0.59604024   -105.31822    1.9950733     8.409253    8.4444277    585.48841
   10500    270.19404      0.00525  0.058972036   0.52333076   -105.36634    1.9208927     8.405771    8.4448478    585.27509
   10600    298.18057       0.0053   0.10856176   0.53710916    -105.5974    2.1198575    8.3820634    8.4452678    583.65341
   10700    279.73267      0.00535 -0.043819061   0.73522355   -105.64931    1.9887057    8.4205741    8.4456879    586.36412
   10800    288.40713       0.0054  0.022677922   0.74415583    -105.7356    2.0503751    8.3804255    8.4461079    583.59741
   10900    300.19353      0.00545  -0.15587552   0.43418823   -105.62737    2.1341683    8.3767745     8.446528    583.37217
   11000    327.53487       0.0055  -0.17660072   0.29243899   -105.52833    2.3285462    8.4208622     8.446948    586.47168
   11100    346.69545      0.00555    0.5595256   0.70253672   -105.53885    2.4647648    8.3805623    8.4473681    583.69402
   11200    289.09861       0.0056  -0.44494672   0.46357055   -105.48663     2.055291    8.4180738    8.4477882    586.33579
   11300    305.70502      0.00565   0.37220681   0.82863861   -105.97722    2.1733512    8.3895631    8.4482082    584.37902
   11400    303.81608       0.0057  -0.25425689   0.77852517   -106.03923     2.159922    8.3937868    8.4486283    584.70229
   11500    282.47302      0.00575 -0.070188738   0.74641137    -105.6013    2.0081877    8.3881347    8.4490483    584.33762
   11600    323.49484       0.0058   0.34889573   0.33164877   -105.15521    2.2998245    8.3994379    8.4494684    585.15412
   11700    399.33128      0.00585  -0.34017597   -0.1524715   -105.89612    2.8389691    8.3799933    8.4498885    583.82852
   11800    313.31645       0.0059 -0.077200378   0.33328789   -105.78481    2.2274631    8.4076738    8.4503085    585.78612
   11900    264.57085      0.00595   0.47069776    1.1334174   -105.58902    1.8809157    8.4132887    8.4507286    586.20647
   12000    231.15224        0.006  -0.57268757    1.2171839   -105.34526    1.6433325    8.3849749    8.4511486    584.26271
   12100    332.24084      0.00605   0.51635821    1.0673343   -105.56699    2.3620025    8.4073498    8.4515687     585.8509
   12200    319.40766       0.0061  -0.15861263   0.39764091   -105.25969    2.2707674    8.3413253    8.4519887    581.27899
   12300     299.1318      0.00615  -0.37904948   0.47064591   -105.32748    2.1266201    8.4437418    8.4524088     588.4453
   12400     306.4236       0.0062    1.1030768    0.9044029   -105.99338    2.1784598    8.3990464    8.4528289    585.35956
   12500    268.58632      0.00625   -1.2050825    0.8249182   -105.82136    1.9094628    8.3480551    8.4532489    581.83471
   12600    291.22855       0.0063  0.068845505    1.3165997    -105.6539    2.0704335    8.4745021     8.453669    590.67704
   12700    304.46807      0.00635    1.1205295    1.1293754   -105.39104    2.1645573    8.3758519     8.454089    583.83008
   12800    280.03167       0.0064   -1.3704926   0.77701338   -105.27416    1.9908314    8.3835832    8.4545091    584.39802
   12900    308.39152      0.00645    1.1883627    1.2825601   -105.50086    2.1924503    8.4661412    8.4549291    590.18224
   13000    310.88449       0.0065  -0.30793305   0.83554786   -105.73069    2.2101736    8.3191554    8.4553492    579.96455
   13100    264.05427      0.00655   -1.1414281   0.69116161   -105.89157    1.8772431    8.4602996    8.4557693    589.83363
   13200    275.00805       0.0066    1.8457787    1.8373052   -105.92311    1.9551169    8.4208732    8.4561893    587.11406
   13300    244.03567      0.00665   -1.2896364    1.1525092   -105.17813    1.7349247    8.3085035    8.4566094    579.30828
   13400    321.03363       0.0067  -0.13450217   0.71600677   -105.47791     2.282327    8.4719789    8.4570294     590.7359
   13500    316.83565      0.00675    1.7763372   0.85506579   -105.53729    2.2524822    8.3777071    8.4574495    584.19151
   13600    270.34242       0.0068   -2.2739952   0.82444873    -105.4731    1.9219475    8.3540409    8.4578696    582.57017
   13700    266.53168      0.00685    1.0228064    1.6699973   -105.54178    1.8948558    8.4935563    8.4582896    592.32871
   13800    306.61898       0.0069   0.83178501     1.196888   -105.46506    2.1798488    8.3271178    8.4587097    580.75036
   13900    311.40085      0.00695   -2.1535718   0.21810306   -105.13697    2.2138445    8.3697162    8.4591297    583.75025
   14000    340.06999        0.007    1.8652754   0.94684705   -105.37994    2.4176623    8.5092598    8.4595498    593.51226
   14100    319.95241      0.00705  -0.13807097    1.0615233    -105.8135    2.2746402     8.324483    8.4599698    580.65309
   14200    300.01245       0.0071   -1.4183752    1.1320871   -105.98695    2.1328809    8.3871173    8.4603899    585.05104
   14300     276.2332      0.00715    1.4947759    1.3630391   -105.61143    1.9638269    8.4462504      8.46081    589.20518
   14400    324.58183       0.0072  -0.31935147   0.45658169   -105.59539    2.3075522    8.3183657      8.46123    580.31283
   14500    294.03953      0.00725   -1.2218737    0.8550176   -105.26654    2.0904176    8.4390809    8.4616501    588.76349
   14600    322.55705       0.0073    1.6902534    1.0105808   -105.41898    2.2931574    8.4960997    8.4620701    592.77091
   14700    268.81708      0.00735  -0.34689182      1.48278   -105.71898    1.9111034    8.3327821    8.4624902    581.40514
   14800    241.50671       0.0074  -0.88385598    1.1743547   -105.59307    1.7169456     8.374703    8.4629103     584.3591
   14900    298.96204      0.00745   0.53235987    1.4831294   -105.61568    2.1254132    8.4517107    8.4633303    589.76171
   15000    277.35541       0.0075 -0.020093645    1.1896848   -105.24959    1.9718051    8.3860275    8.4637504    585.20737
   15100    274.10481      0.00755 -0.046504112    1.4159175   -105.06433    1.9486955    8.4611748    8.4641704    590.48072
   15200    343.29092       0.0076   0.64166803    1.4176097    -105.4465    2.4405609    8.3974966    8.4645905    586.06589
   15300    246.79576      0.00765  -0.78317657     1.078015     -105.423    1.7545471    8.4055226    8.4650105    586.65514
   15400    271.84647       0.0077   0.16855467    1.6924429   -105.67518    1.9326402    8.4238998    8.4654306    587.96694
   15500    294.06754      0.00775   0.51733656    1.5636446   -105.57055    2.0906167    8.3908311    8.4658507    585.68788
   15600     264.0613       0.0078  -0.85769304    1.2153016   -105.10754    1.8772931    8.4088041    8.4662707    586.97154
   15700    320.45025      0.00785   0.87396761   0.94450361   -105.19682    2.2781795    8.4095943    8.4666908    587.05583
   15800    326.68516       0.0079  -0.69432098    1.2418817   -105.18521    2.3225054    8.3600848    8.4671108    583.62863
   15900    273.94803      0.00795  0.058477035    1.1657073   -105.43162    1.9475809    8.4478204    8.4675309    589.78282
   16000    258.29281        0.008    0.6351383    2.1391183    -105.5351    1.8362831     8.399281    8.4679509    586.42315
   16100    290.32404      0.00805  -0.89407098    1.2067508   -105.65232     2.064003    8.3841937     8.468371    585.39882
   16200    300.70339       0.0081   0.34305407    1.1994544   -105.31515     2.137793    8.4894816    8.4687911     592.7796
   16300    328.58948      0.00815   0.80380999    1.1533834   -105.14429    2.3360438     8.379786    8.4692111    585.14911
   16400    317.07927       0.0082     -1.07909    1.0344509   -105.20167    2.2542142    8.3772708    8.4696312    585.00249
   16500    294.65466      0.00825   0.53941935    1.3724697   -105.73725    2.0947907     8.405639    8.4700512    587.01261
   16600    316.06151       0.0083   0.17004897    1.8116463   -106.08981    2.2469786    8.3583483    8.4704713    583.73898
   16700    272.17708      0.00835  -0.58012539    1.2071626   -105.69091    1.9349907    8.3221911    8.4708914    581.24263
   16800    318.03889       0.0084  -0.13521304    1.6201398   -105.54169    2.2610364     8.443551    8.4713114    589.74794
   16900    300.47423      0.00845     1.019381   0.71296985   -105.32201    2.1361638    8.4191149    8.4717315    588.07034
   17000    332.62664       0.0085  -0.67339423    1.0902302   -105.57812    2.3647452    8.3388574    8.4721515    582.49328
   17100    335.19955      0.00855   0.10835214    0.8959925   -105.76576    2.3830368    8.4380304    8.4725716    589.45003
   17200    237.94545       0.0086   0.49674134    1.7177526   -105.61757    1.6916275    8.3776215    8.4729916     585.2591
   17300    258.70481      0.00865  -0.77033552   0.85815143   -106.03502    1.8392122    8.3091391    8.4734117    580.50371
   17400    284.01172       0.0087  -0.13324287    1.2650325   -105.90356    2.0191268    8.4224189    8.4738318    588.44698
   17500    311.89605      0.00875    1.2112234     1.474677   -105.72729    2.2173651    8.3848568    8.4742518    585.85167
   17600    359.03816       0.0088    -1.333053   0.72369625   -105.76699    2.5525129    8.3591501    8.4746719    584.08449
   17700    349.93525      0.00885   0.40950727    1.1623717   -105.73244    2.4877975    8.4540217    8.4750919     590.7428
   17800    251.51301       0.0089    0.9610888    2.1429539    -105.4276    1.7880835    8.3623521     8.475512    584.36615
   17900    275.48398      0.00895   -1.3252869    1.0876271   -105.96787    1.9585005    8.2969353    8.4759321    579.82353
   18000    232.64432        0.009   0.33194301    1.7358954   -105.94007    1.6539401     8.448368    8.4763521    590.43551
   18100    234.23832      0.00905   0.74729634    2.0871676   -105.71792    1.6652723    8.3470102    8.4767722    583.38078
   18200    311.19116       0.0091   -1.3646051    1.1924665   -105.69776    2.2123538    8.3633295    8.4771922    584.55031
   18300    306.41891      0.00915   0.98517837    1.8517649   -105.35742    2.1784264    8.4445818    8.4776123    590.25864
   18400    362.09602       0.0092   0.33565099      1.67948   -105.62184    2.5742521    8.3686659    8.4780323    584.98127
   18500    311.58461      0.00925   -1.0572343    1.3786731   -105.59663    2.2151509    8.3853118    8.4784524    586.17388
   18600    301.38826       0.0093   0.89132896    1.5978301   -105.86453    2.1426619    8.3881338    8.4788725     586.4002
   18700    268.23081      0.00935  -0.82643894    1.6347475   -105.88942    1.9069355    8.3580671    8.4792925    584.32724
   18800    255.69076       0.0094   0.52892396    1.8717811   -105.68416    1.8177843    8.4386502    8.4797126    589.99017
   18900    315.05074      0.00945   0.34190043    1.1999545   -105.34649    2.2397927    8.3555038    8.4801326    584.20591
   19000    307.98896       0.0095   -1.0804366    1.4955812   -105.28806    2.1895883    8.3659652    8.4805527    584.96633
   19100    314.49826      0.00955    1.0528846    1.9214497   -105.59147     2.235865    8.4537482    8.4809727    591.13358
   19200    311.84032       0.0096 -0.032835644    1.9383049   -105.87288    2.2169688    8.3135087    8.4813928    581.35605
   19300    247.43623      0.00965  -0.99554137    2.1209611   -105.69626    1.7591004    8.4130598    8.4818129     588.3467
   19400    298.98294       0.0097    1.4986893    2.3630307    -105.6794    2.1255618    8.4134265    8.4822329    588.40148
   19500    333.80003      0.00975   -1.4466047   0.83853466   -105.48075    2.3730872    8.2829357     8.482653    579.30416
   19600    262.80782       0.0098   0.17010828     1.895124   -105.10684    1.8683817    8.5096541     8.483073     595.1902
   19700    333.10645      0.00985    1.9191875    2.2143766   -105.56705    2.3681563    8.3619156    8.4834931     584.8859
   19800    292.03158       0.0099   -2.9130144    1.4735347   -105.53619    2.0761425    8.3227574    8.4839132    582.17575
   19900    249.92142      0.00995    1.8790657    2.1461465    -105.5887    1.7767683     8.496873    8.4843332    594.38454
   20000    288.32271         0.01   0.30421963    1.7742954   -105.70755    2.0497749     8.265894    8.4847533    578.25542
   20100    290.33665      0.01005   -1.9066734    1.4670895    -105.5645    2.0640926    8.3741248    8.4851733     585.8559
   20200    319.08063       0.0101    1.8008996    2.4346226     -105.349    2.2684424    8.4306008    8.4855934    589.83617
   20300    326.98666      0.01015  -0.89686101    1.3987975   -105.22605    2.3246489    8.3019417    8.4860134    580.86345
   20400    304.47872       0.0102  -0.70944189    1.2330025   -105.32115     2.164633    8.4567381    8.4864335    591.72341
   20500    275.60447      0.01025    2.1412356     2.122765   -105.47594    1.9593571    8.3851428    8.4868536    586.74289
   20600    287.65567       0.0103   -1.9166377    1.4176012   -105.60872    2.0450327    8.3322463    8.4872736    583.07036
   20700    351.26099      0.01035    0.5462483    1.8094624    -105.9255    2.4972226    8.4427354    8.4876937    590.83136
   20800    302.86287       0.0104   0.45020687    2.3524783     -105.419    2.1531454    8.3862063    8.4881137    586.90443
   20900    305.90893      0.01045  -0.92734744    1.9218816   -105.19452    2.1748008    8.3794911    8.4885338     586.4635
   21000    294.57297       0.0105   0.78141923    1.8929528   -104.93596      2.09421    8.4839617    8.4889539    593.80456
   21100    286.39978      0.01055   0.12593101    2.0427991   -105.24448    2.0361042    8.3446589    8.4893739    584.08347
   21200    283.89404       0.0106  -0.54961148    1.6844636   -105.68314    2.0182902    8.3994101     8.489794    587.94486
   21300    296.01341      0.01065   0.63507977     2.201091    -105.7043    2.1044505    8.4467708     8.490214    591.28929
   21400    328.09988       0.0107  -0.16938197    1.2918002   -105.67597    2.3325631    8.3041282    8.4906341     581.3328
   21500     327.5005      0.01075   -1.1026137    1.6858835   -105.34025    2.3283019    8.4612941    8.4910541    592.36455
   21600    390.02961       0.0108    1.8189891    1.5650788   -105.28195    2.7728406     8.411196    8.4914742    588.88638
   21700     346.5185      0.01085   -1.1740826    1.4143616   -105.38772    2.4635067    8.3501624    8.4918943     584.6422
   21800    333.61657       0.0109   0.16286406    1.7051292   -105.65862     2.371783    8.4452692    8.4923143    591.33042
   21900    332.81459      0.01095   0.61966993    1.1913863   -105.77611    2.3660814    8.3687169    8.4927344    585.99928
   22000    250.19109        0.011   -1.0520981    1.2262351   -105.36061    1.7786855    8.3513099    8.4931544    584.80931
   22100    299.07034      0.01105    0.6583982     1.830332   -105.55212    2.1261831    8.4394843    8.4935745    591.01305
   22200    341.56874       0.0111   0.43117704    1.6607118   -105.65153    2.4283173     8.362294    8.4939946    585.63641
   22300    331.04047      0.01115   -1.0501934    1.7836344   -105.20566    2.3534687    8.3648944    8.4944146    585.84749
   22400    338.78983       0.0112   0.46359096    1.7609928   -105.04346    2.4085613    8.4298903    8.4948347    590.42877
   22500    284.27819      0.01125   0.47808662    2.3275722   -105.28612    2.0210212    8.4022215    8.4952547    588.51995
   22600    273.43963       0.0113  -0.68023288    1.6523959   -105.47005    1.9439666    8.3465184    8.4956748    584.64723
   22700    263.64374      0.01135   0.11017321     1.948585   -105.40023    1.8743246    8.4292429    8.4960948    590.47101
   22800    294.91922       0.0114   0.57422408    1.7447656   -105.49874    2.0966715    8.3590351    8.4965149    585.58188
   22900    321.85001      0.01145  -0.85835457    1.7887921   -105.25914    2.2881308    8.3761766     8.496935    586.81172
   23000    335.13048       0.0115   0.54675575    1.2682206   -105.10708    2.3825458    8.4266281     8.497355     590.3754
   23100    310.71646      0.01155   0.39634299    1.1107889   -105.48852     2.208979    8.3233415    8.4977751    583.16789
   23200    260.03622       0.0116   -1.1042329    1.1926661   -105.49469    1.8486776    8.3941261    8.4981951    588.15643
   23300    302.46248      0.01165   0.83528448     1.860155   -105.77175     2.150299     8.427045    8.4986152    590.49216
   23400    322.34022       0.0117  0.029159422    1.8852166   -105.72945    2.2916159    8.3264685    8.4990352     583.4735
   23500     340.5636      0.01175  -0.91010986    1.6244479   -105.35465    2.4211715    8.4468486    8.4994553    591.93833
   23600    354.80222       0.0118    1.2905191    1.4729443   -105.52358    2.5223983    8.4318575    8.4998754    590.91699
   23700    339.23354      0.01185  -0.50009048    1.0477869   -105.72546    2.4117157    8.3116056    8.5002954    582.51834
   23800    311.47632       0.0119  -0.60116637    1.7462471   -105.64875    2.2143811    8.3805825    8.5007155    587.38161
   23900    300.29236      0.01195   0.76095069    2.2015867   -105.53976    2.1348708    8.3975343    8.5011355    588.59882
   24000    322.42223        0.012  -0.48560311    1.4677218   -105.53924     2.292199    8.3802687    8.5015556    587.41766
   24100    326.82768      0.01205   0.47753595    1.3573781   -105.34934    2.3235186    8.4040843    8.5019757    589.11613
   24200    302.67112       0.0121 -0.017980638    1.8440265   -105.11709    2.1517822    8.3321702    8.5023957     584.1039
   24300    293.70473      0.01215  -0.68697594    1.6416611    -105.4917    2.0880374    8.3944402    8.5028158    588.49824
   24400    269.92271       0.0122   0.67730354    2.3606869    -105.6351    1.9189637    8.4114796    8.5032358    589.72194
   24500    269.45074      0.01225   0.12467443    2.3467618   -105.52194    1.9156083    8.3378015    8.5036559     584.5853
   24600    312.27535       0.0123  -0.92555231    1.6360927   -105.49104    2.2200616    8.3934325    8.5040759     588.5148
   24700    332.65058      0.01235   0.92690873    2.0677716   -105.39461    2.3649154    8.4223536     8.504496    590.57181
   24800    323.86446       0.0124  -0.46098176    2.0158849   -105.01888    2.3024522    8.3717848    8.5049161    587.05494
   24900    381.01796      0.01245  0.081476442    1.9316616   -105.27159     2.708774    8.4390987    8.5053361    591.80443
   25000    312.21092       0.0125   0.60888613    2.1171529   -105.47201    2.2196036    8.3792307    8.5057562    587.63511
   25100    282.06616      0.01255  -0.82920705    1.7569858   -105.51005    2.0052952    8.3506117    8.5061762    585.65698
   25200     287.5841       0.0126   0.28226527    2.0229248   -105.60745     2.044524    8.4019734    8.5065963    589.28825
   25300    287.35922      0.01265   0.40938007    2.5372066   -105.66017    2.0429252    8.3737072    8.5070164    587.33475
   25400    281.94957       0.0127  -0.73743633    2.6117662   -105.50235    2.0044663    8.3715468    8.5074364    587.21221
   25500    321.32833      0.01275   0.32440483    2.3356617   -105.27841     2.284422    8.4277582    8.5078565    591.18429
   25600    331.65911       0.0128    0.3330812    2.0391362   -105.37903    2.3578668    8.3739467    8.5082765    587.43856
   25700    247.20017      0.01285  -0.31437747    2.7778222   -105.24708    1.7574221    8.3389334    8.5086966    585.01123
   25800    306.86046       0.0129   -0.3288256     2.282472    -105.7873    2.1815655     8.440796    8.5091166    592.18655
   25900    300.62176      0.01295    0.8575914    2.4330997   -105.63154    2.1372127    8.4157781    8.5095367     590.4605
   26000    317.70837        0.013  -0.45427621     2.134803   -105.70017    2.2586867    8.3496072    8.5099568     585.8468
   26100    255.10188      0.01305   -0.3274961    2.0934385   -105.23972    1.8135979    8.3983136    8.5103768    589.29335
   26200    348.51994       0.0131   0.66478744    1.8103155   -105.34362    2.4777356    8.4106945    8.5107969    590.19122
   26300    335.90875      0.01315   -0.4401407    1.3538035   -105.14104    2.3880787    8.3386773    8.5112169    585.16655
   26400    317.21527       0.0132   0.20732571    1.8702028   -105.38837     2.255181    8.3748462     8.511637     587.7337
   26500    305.43969      0.01325  -0.38033919    1.6889566   -105.56054    2.1714648    8.3407996     8.512057    585.37325
   26600    269.82359       0.0133   0.12474978    1.9348331    -105.3803     1.918259    8.4022343    8.5124771    589.71395
   26700    257.85453      0.01335   0.46216595    2.3246101   -105.26037    1.8331673    8.3814518    8.5128972    588.28435
   26800    315.37648       0.0134  -0.66359427    1.6871215   -105.52613    2.2421085    8.3747198    8.5133172    587.84085
   26900    330.22852      0.01345   0.25131058    2.3441148   -105.26674    2.3476963    8.4510056    8.5137373    593.22479
   27000    362.81754       0.0135   0.85397563    2.5379428    -105.1908    2.5793816    8.3483701    8.5141573    586.04913
   27100    292.60856      0.01355    -1.496475    1.8435477   -105.24728    2.0802444    8.3579782    8.5145774    586.75256
   27200    257.05626       0.0136    1.1077426    2.5709825   -105.14686    1.8274921    8.4358456    8.5149975    592.24827
   27300    318.04077      0.01365  0.027364505    2.2561274   -105.59669    2.2610498    8.3253496    8.5154175    584.51961
   27400    272.50053       0.0137  -0.85531005    1.9942159   -105.56492    1.9372902    8.3890634    8.5158376    589.02198
   27500    216.29663      0.01375   0.98100628    2.5152378   -105.45008    1.5377194    8.3781342    8.5162576    588.28363
   27600    290.00274       0.0138  -0.66770244    1.8622247   -105.53405    2.0617188    8.3374652    8.5166777    585.45687
   27700    293.84389      0.01385 -0.046587437    2.0858859   -105.15829    2.0890267    8.4230339    8.5170977    591.49468
   27800    305.21197       0.0139   0.95860797    2.5599691   -105.19484    2.1698459    8.3785277    8.5175178    588.39831
   27900     297.3627      0.01395   -1.5771428    2.1599672    -105.3743     2.114043    8.3344126    8.5179379    585.32911
   28000    267.20885        0.014    1.0234497    2.8997558   -105.67787      1.89967    8.4531606    8.5183579     593.6981
   28100    260.60599      0.01405    0.5263879     2.717804   -105.85088    1.8527283    8.3221065     8.518778     584.5225
   28200    269.19521       0.0141   -1.0777837    2.1792505   -105.63317    1.9137916    8.3414003     8.519198    585.90653
   28300    333.94555      0.01415   0.05040218    2.3141874   -105.74862    2.3741218    8.4536663    8.5196181    593.82146
   28400    336.75065       0.0142    1.1912645    1.9017907   -105.75309    2.3940641    8.3612359    8.5200382    587.35772
   28500     267.3046      0.01425   -1.5244336    1.6978988   -105.31083    1.9003507    8.3138621    8.5204582    584.05861
   28600    286.44449       0.0143   0.54280128    2.2881445   -105.24479    2.0364221    8.4607558    8.5208783    594.40736
   28700    274.64932      0.01435   0.99832298    2.3680672   -104.91615    1.9525666    8.3466572    8.5212983    586.42032
   28800    332.02774       0.0144   -2.0078391    1.4739813   -105.13685    2.3604875      8.37499    8.5217184    588.43993
   28900    311.51616      0.01445    1.7798917    2.3469224   -105.25658    2.2146643    8.5058713    8.5221384    597.66532
   29000    311.89969       0.0145 -0.0094263741     2.775782   -105.63605    2.2173909    8.2666451    8.5225585    580.88471
   29100    265.98041      0.01455   -2.0722752    2.0135652    -105.5308    1.8909366    8.4094578    8.5229786    590.94907
   29200    293.89119       0.0146    2.6262971    3.3793918   -105.48623     2.089363    8.4475512    8.5233986    593.65522
   29300    378.10124      0.01465   -1.6303368    1.8098645   -105.34301    2.6880381    8.2954127    8.5238187    582.99235
   29400    365.52825       0.0147  -0.21686152    1.6971157   -105.45117    2.5986529    8.4770397    8.5242387    595.78626
   29500    291.50381      0.01475    1.7522556    2.1280299   -105.26208    2.0723904    8.3877637    8.5246588    589.54078
   29600    283.18122       0.0148   -2.1256236    1.9774874   -105.39377    2.0132225    8.3204637    8.5250788    584.83936
   29700    231.43023      0.01485   0.97251584    2.8757711   -105.31993    1.6453088    8.5221579    8.5254989    599.04581
   29800    334.11293       0.0149    1.1100804    2.8538311   -105.77649    2.3753117    8.3170821     8.525919    584.65928
   29900    329.11528      0.01495   -2.1932639    2.1120216   -105.14926    2.3397819    8.4016012     8.526339    590.62975
   30000    316.28477        0.015    1.7370269    2.7877592   -105.07751    2.2485658    8.4799211    8.5267591    596.16498
   30100    283.27152      0.01505  -0.52364196    2.5486385   -105.17931    2.0138645     8.312883    8.5271791    584.45047
   30200    287.40338       0.0151  -0.55359461    2.2614427   -105.69412    2.0432392    8.4017173    8.5275992    590.72521
   30300    322.07749      0.01515   0.88771937    2.8003558   -105.83559     2.289748    8.3581544    8.5280193    587.69125
   30400    332.51847       0.0152  -0.82418768      2.72662    -105.6808    2.3639762    8.3474446    8.5284393    586.96711
   30500    318.42306      0.01525   0.27947966    3.1540602    -105.3958    2.2637676    8.4622817    8.5288594    595.07142
   30600    353.77236       0.0153   0.34379296    2.5913869   -105.24708    2.5150767    8.3535701    8.5292794    587.45571
   30700    318.11061      0.01535  -0.97132721    2.4867132   -104.71906    2.2615463    8.4437481    8.5296995    593.82662
   30800    332.22989       0.0154    1.7182517     2.849019   -105.29146    2.3619246    8.4469756    8.5301195    594.08285
   30900    308.53202      0.01545   -1.2151699    2.7676475   -105.66143    2.1934491    8.3013205    8.5305396    583.86756
   31000    252.12864       0.0155  -0.15740659     2.729845   -105.42436    1.7924601    8.4189966    8.5309597    592.17338
   31100    312.06926      0.01555   0.89240893     3.082254   -105.58175    2.2185965    8.4183311    8.5313797    592.15573
   31200     304.9197       0.0156  -0.56462118    2.3534022   -105.17841    2.1677681    8.2992815    8.5317998    583.81038
   31300    321.05158      0.01565  -0.55233032    2.5986973   -105.32221    2.2824545    8.4604817    8.5322198    595.17926
   31400    332.81887       0.0157     1.555027    2.6347351   -105.57586    2.3661118    8.4042795    8.5326399    591.25464
   31500     318.6085      0.01575   -1.2688911    2.7095167   -105.66025     2.265086     8.289855      8.53306     583.2334
   31600    220.43989       0.0158 -0.078388864    2.7225509   -105.70965    1.5671751    8.4116831      8.53348    591.83376
   31700     281.8687      0.01585    1.0717077    2.8708524   -105.99591    2.0038914    8.3975916    8.5339001    590.87139
   31800    272.84114       0.0159  -0.94673839    2.3110287   -105.49709    1.9397117    8.3137308    8.5343201    584.99957
   31900    257.12167      0.01595 -0.093155744     2.851166   -104.97041    1.8279571      8.43414    8.5347402    593.50143
   32000    353.07688        0.016    1.2043548    2.7120401   -105.49479    2.5101323    8.3619087    8.5351602    588.44755
   32100    282.92901      0.01605   -1.3509171    2.1212119    -105.3251    2.0114294    8.3222272    8.5355803     585.6839
   32200    291.12806       0.0161   0.56209485    2.4901577   -105.63602     2.069719    8.4462297    8.5360004    594.43993
   32300    250.03722      0.01615   0.62852835       2.4461   -105.38888    1.7775916    8.3226404    8.5364204    585.77062
   32400    379.67068       0.0162   -1.9064409    2.2492123   -105.59573    2.6991958    8.3849933    8.5368405    590.18823
   32500    302.32359      0.01625    1.5429066    2.6239091   -104.93572    2.1493115    8.4820213    8.5372605    597.04705
   32600    303.81371       0.0163   0.20294433    2.5902046    -105.1802    2.1599052    8.2999643    8.5376806    584.26085
   32700     311.4529      0.01635   -1.0063932     1.813327   -105.66935    2.2142146    8.4207327    8.5381006    592.79128
   32800    274.18703       0.0164    1.2648319    2.8208601   -105.69776      1.94928    8.3667892    8.5385207    589.02282
   32900    244.97331      0.01645   -1.1536191    2.4459644   -105.36732    1.7415907    8.3200773    8.5389408    585.76312
   33000    289.24916       0.0165  -0.11580874    3.1612558   -105.42704    2.0563613      8.44078    8.5393608    594.29025
   33100    317.83979      0.01655    1.4019965    2.7972944   -105.45732     2.259621    8.3637125    8.5397809    588.89312
   33200    311.20634       0.0166   -1.5844996    2.2208718   -105.41122    2.2124617     8.357493    8.5402009    588.48415
   33300    308.59764      0.01665   0.83588743    2.7508175   -105.41524    2.1939157    8.4849161     8.540621     597.4859
   33400    334.29869       0.0167   0.22245016     2.931318   -105.57018    2.3766323    8.3327915    8.5410411    586.80254
   33500    271.40734      0.01675   -1.2260764    2.6157954   -105.31931    1.9295184    8.3858408    8.5414611    590.56736
   33600    238.01189       0.0168    1.5691958    3.1096184   -105.14786    1.6920998    8.4545986    8.5418812    595.43887
   33700     341.4797      0.01685  -0.62014745    2.8298106     -105.613    2.4276844    8.3034549    8.5423012     584.8229
   33800    345.75143       0.0169  -0.57681144    2.8554706   -105.40307    2.4580534    8.4663571    8.5427213    596.32564
   33900    311.53292      0.01695   0.95800816    2.9096519   -105.20548    2.2147834    8.4295138    8.5431413    593.75978
   34000    310.34164        0.017  -0.45397033    2.4603473   -105.62063    2.2063143    8.3583835    8.5435614    588.77844
   34100    295.53264      0.01705  -0.23314208     3.013968   -105.85058    2.1010325    8.4197003    8.5439815    593.12686
   34200    304.35964       0.0171    0.8033935    3.3805986   -105.82042    2.1637864    8.4063958    8.5444015    592.21873
   34300    338.06886      0.01715  -0.85158029    2.5972608   -105.56576    2.4034356    8.3749053    8.5448216    590.02928
   34400    299.56587       0.0172   0.23887071    2.4823975   -105.16388     2.129706     8.389857    8.5452416    591.11172
   34500    279.01548      0.01725    0.1422383    2.6899224    -105.1799    1.9836069    8.3821551    8.5456617     590.5981
   34600     278.4485       0.0173     0.166148    2.2492494   -105.48399    1.9795762    8.3766587    8.5460818    590.23984
   34700     273.7422      0.01735  0.054993657    2.7581447   -105.48737    1.9461176    8.3716108    8.5465018    589.91315
   34800    334.55115       0.0174  -0.66436752    2.4426221   -105.36483    2.3784271    8.3685155    8.5469219    589.72402
   34900    345.94533      0.01745   0.48312065    2.4135261    -105.0973    2.4594319    8.4505303    8.5473419    595.53282
   35000    307.14121       0.0175   0.21541684    2.2487993   -105.06188    2.1835615     8.376145     8.547762    590.31969
   35100    284.66695      0.01755  -0.30807879    2.6642292    -105.3028     2.023785    8.3661629     8.548182    589.64516
   35200    264.10706       0.0176  -0.28601026    3.2076811   -105.34326    1.8776184    8.4148917    8.5486021     593.1087
   35300    255.52345      0.01765   0.75512458     3.107178   -105.28877    1.8165949    8.3861839    8.5490222    591.11433
   35400    305.49258       0.0177  -0.36849973    2.3660448   -105.38631    2.1718408    8.3611137    8.5494422    589.37617
   35500    356.99941      0.01775  -0.19781173    2.4376624   -105.44235    2.5380188     8.388138    8.5498623    591.31017
   35600    290.82386       0.0178   0.30364895     2.098189   -105.03541    2.0675564    8.3950822    8.5502823    591.82876
   35700    275.54376      0.01785   -0.1631638    2.2893655   -105.50788    1.9589254    8.3350657    8.5507024    587.62664
   35800    255.91923       0.0179  -0.10471983    2.8204026   -105.51804    1.8194086    8.4092517    8.5511224    592.88592
   35900    284.52926      0.01795  0.060580486    3.1932638   -105.48052    2.0228062    8.3957779    8.5515425    591.96504
   36000    308.20617        0.018  0.030474066    2.5230486   -105.20378    2.1911326    8.4166639    8.5519626    593.46681
   36100    329.88603      0.01805 -0.071499308    3.0168626   -105.12599    2.3452614    8.3993394    8.5523826    592.27433
   36200    319.32856       0.0181   0.54606983    2.4987626   -105.24879    2.2702051    8.3581762    8.5528027    589.40069
   36300    229.97238      0.01815  -0.64670371    2.6817167   -105.03469    1.6349445    8.4154086    8.5532227    593.46573
   36400    283.37172       0.0182   0.89374617    2.7902187   -105.42694    2.0145768    8.3686934    8.5536428     590.2003
   36500    256.06208      0.01825   -1.2985435    2.4208497   -105.14794    1.8204242     8.337064    8.5540629    587.99852
   36600    315.90003       0.0183   0.49568918    2.8610911   -105.46395    2.2458306    8.4750631    8.5544829    597.76071
   36700    289.16526      0.01835     1.111543    2.7764107   -105.05164    2.0557649    8.3336327     8.554903    587.81424
   36800     337.3148       0.0184   -2.0593729    2.0084965   -105.03103    2.3980748    8.3957729     8.555323    592.22639
   36900    303.92768      0.01845    1.4799243    2.9890554   -105.03368    2.1607155    8.4918411    8.5557431    599.03232
   37000    282.12205       0.0185   0.71534674    2.9329603   -105.36498    2.0056925    8.2974066    8.5561631    585.34524
   37100    295.01195      0.01855   -2.7369236     2.672778   -105.66979    2.0973308    8.3772785    8.5565832    591.00886
   37200    293.67835       0.0186    2.7345811    3.2088681   -105.47217    2.0878498     8.487349    8.5570033    598.80362
   37300    355.88798      0.01865   -1.0780084    2.4103141   -105.56653    2.5301172    8.2345087    8.5574233    580.99363
   37400    303.57073       0.0187   -1.1942229    2.6913153   -105.30276    2.1581778    8.4318638    8.5578434    594.94741
   37500    271.33616      0.01875    2.1494448    3.5523538   -105.07232    1.9290123    8.4473021    8.5582634    596.06598
   37600     327.4765       0.0188   -1.0424774    2.3614711   -105.44533    2.3281313    8.2498436    8.5586835    582.16131
   37700    258.49845      0.01885  -0.95095809    1.9421039   -105.36424    1.8377451    8.4509918    8.5591036    596.38488
   37800    316.36491       0.0189     2.132372    2.8218071   -105.90203    2.2491356    8.3803093    8.5595236    591.42585
   37900    307.96874      0.01895   -1.7412133    2.6318388   -105.66914    2.1894446    8.3132823    8.5599437    586.72433
   38000    360.57482        0.019  0.063773217    2.9946174   -105.51671    2.5634374    8.4518266    8.5603637     596.5316
   38100    272.47712      0.01905   0.97192021    3.5169453   -104.75532    1.9371238    8.3833207    8.5607838    591.72548
   38200     303.3834       0.0191  -0.76618885    2.6095848   -104.99763     2.156846      8.36237    8.5612038    590.27566
   38300    270.80193      0.01915    0.5930137    2.9202297    -105.3621    1.9252143    8.4354944    8.5616239    595.46652
   38400    316.60881       0.0192 -0.011885058    3.0996408    -105.9922    2.2508695    8.3104256     8.562044    586.66662
   38500    296.65881      0.01925  -0.95783343    2.7028522   -105.78746    2.1090389    8.3867209     8.562464    592.08166
   38600    272.19759       0.0193    1.1977403    3.1286359    -105.1753    1.9351365    8.4159789    8.5628841    594.17635
   38700     310.8616      0.01935  -0.60010499    2.7666771   -105.18923    2.2100109    8.2995471    8.5633041    585.98489
   38800    299.46363       0.0194  -0.51296523    2.7920329   -105.18794    2.1289792    8.4184852    8.5637242    594.41161
   38900    287.56125      0.01945    1.3248185    2.9277624   -105.33792    2.0443615    8.4257256    8.5641443    594.95202
   39000    288.07876       0.0195  -0.82101831    3.2685834   -105.87039    2.0480406    8.3065412    8.5645643    586.56502
   39100    223.37726      0.01955  -0.25727159    3.3153726   -105.63803    1.5880577    8.3973204    8.5649844    593.00446
   39200    290.86774       0.0196   0.93160923    3.6631884   -105.83756    2.0678684    8.3538398    8.5654044    589.96287
   39300    280.19327      0.01965  -0.86973048    2.9898803   -105.44853    1.9919803    8.3435524    8.5658245    589.26525
   39400    242.39038       0.0197  -0.21390019    2.8573086   -104.91078    1.7232278     8.412455    8.5662445    594.16064
   39500    346.76268      0.01975    1.3575428    2.8084066   -105.38551    2.4652427    8.3946593    8.5666646    592.93283
   39600    314.10766       0.0198   -1.4847035    2.7291581   -105.25003    2.2330881    8.3512793    8.5670847    589.89773
   39700     299.4355      0.01985   0.97169691    3.1748601   -105.84527    2.1287792    8.4260011    8.5675047    595.20493
   39800    283.52964       0.0199  -0.16549084    3.5304384   -105.75907    2.0156995    8.3211365    8.5679248    587.82622
   39900    278.14569      0.01995  -0.57024519    2.5390008   -105.34162    1.9774234    8.3709299    8.5683448    591.37274
   40000    284.39208         0.02   0.49568585    3.0422743    -105.1208    2.0218309    8.4208388    8.5687649    594.92777
   40100    274.95643      0.02005  0.025070558    2.7005761   -105.03507    1.9547499    8.3504629    8.5691849    589.98467
   40200    242.45799       0.0201  -0.50407556    3.1812383   -104.81437    1.7237085    8.4098111     8.569605    594.20692
   40300    266.49933      0.02015   0.91138645    3.5651033   -105.48085    1.8946258    8.3889484    8.5700251    592.76189
   40400    252.63267       0.0202  -0.75846178    2.7072238   -105.58865    1.7960434    8.3297091    8.5704451     588.6049
   40500    292.84714      0.02025 -0.026811606    3.6470172    -105.5109    2.0819405    8.4605004    8.5708652    597.87635
   40600     348.3594       0.0203   0.65977834    3.0204882   -105.57601    2.4765943    8.4321783    8.5712852    595.90412
   40700    327.02896      0.02035 -0.087773404    2.7102033   -105.40174    2.3249496    8.3124684    8.5717053    587.47298
   40800    272.40485       0.0204   -1.1743329    2.8744942   -105.03989      1.93661    8.4356403    8.5721254    596.20721
   40900    289.37813      0.02045    1.8237342      3.42857   -105.14282    2.0572783    8.4232954    8.5725454    595.36389
   41000    297.46127       0.0205   -1.3320407    3.1822012   -105.50469    2.1147438     8.344659    8.5729655    589.83472
   41100    270.64161      0.02055   0.56232864    3.7876221   -105.54016    1.9240746    8.4408853    8.5733855    596.66561
   41200    285.72017       0.0206    0.2677636     3.322282   -105.49031    2.0312726    8.3552618    8.5738056    590.64204
   41300    300.37789      0.02065   -1.2638483    3.2183415   -105.13463     2.135479    8.3637333    8.5742256    591.26986
   41400    320.21205       0.0207    1.2268849    3.1118122   -105.20974    2.2764861    8.4883725    8.5746457    600.11057
   41500     275.0121      0.02075   0.18983819    2.8273955   -105.01047    1.9551457    8.3128322    8.5750658    587.72902
   41600    286.03256       0.0208   -1.4640138    3.4274146    -105.2254    2.0334936    8.3978418    8.5754858     593.7684
   41700    297.95822      0.02085    1.5127067    3.4233037   -105.37363    2.1182768    8.4254645    8.5759059    595.75064
   41800    313.10143       0.0209  -0.55372313    3.3220467   -105.43711    2.2259345    8.2883565    8.5763259    586.08467
   41900    290.04132      0.02095   -1.0308761    3.2403322   -105.28785     2.061993    8.4287347     8.576746    596.04026
   42000    343.79026        0.021     1.908483    3.4542459   -105.36127    2.4441109    8.4235332    8.5771661    595.70161
   42100    318.78727      0.02105   -1.3785086     2.867011   -104.96644    2.2663569    8.3329266    8.5775861    589.32288
   42200    294.87377       0.0211   0.37346097    3.3958267   -105.20527    2.0963485    8.4200926    8.5780062    595.51662
   42300     263.1129      0.02115   0.64951453    3.8911829   -105.36108    1.8705506     8.329062    8.5784262    589.10726
   42400    263.62364       0.0212   -1.4518129    3.0961059   -105.39943    1.8741817    8.3492886    8.5788463    590.56679
   42500    272.37691      0.02125    1.1179127    2.7944143   -105.36418    1.9364113    8.4137869    8.5792663    595.15806
   42600    353.14594       0.0213   0.13671019      2.71033   -105.25847    2.5106233    8.3202474    8.5796864    588.57026
   42700    364.28037      0.02135   -1.4501056    2.5167286   -105.29014    2.5897813    8.4115814    8.5801065    595.06032
   42800    277.68142       0.0214    2.2456812    3.4221686   -105.12995    1.9741227    8.4315848    8.5805265    596.50462
   42900    261.54574      0.02145   -1.5246554     3.257739   -105.14689    1.8594092    8.2397911    8.5809466    582.96443
   43000    333.45524       0.0215  -0.31550855    3.2057332   -105.65163     2.370636    8.4538853    8.5813666    598.14086
   43100    261.25369      0.02155    1.9367606    3.5772688   -105.23245    1.8573329    8.4125921    8.5817867    595.24836
   43200    304.89605       0.0216   -2.1906691    3.3213513   -105.35995    2.1675999     8.255761    8.5822067    584.18008
   43300     284.8133      0.02165   0.63789734    3.3918385   -104.89738    2.0248255    8.4604008    8.5826268    598.68975
   43400    313.99248       0.0217    1.1861507    3.6434469   -105.08969    2.2322692    8.3268881    8.5830469    589.27073
   43500     271.5169      0.02175   -2.0355425    2.4822263   -105.13889    1.9302973    8.3279585    8.5834669    589.37532
   43600    241.33674       0.0218    1.3057063    3.8762042   -105.24487    1.7157372    8.4824259     8.583887    600.33647
   43700    272.47053      0.02185   0.60391445    4.1194426    -105.4121    1.9370769    8.3372577     8.584307    590.09119
   43800    345.71582       0.0219   -1.9148139    3.3311103   -105.47756    2.4578002    8.3840247    8.5847271    593.43028
   43900    358.37783      0.02195    1.5192645    3.1344454   -104.97542    2.5478184     8.457997    8.5851472    598.69541
   44000     392.8647        0.022  -0.10303101     2.335365   -104.59247    2.7929961    8.2921109    8.5855672    586.98196
   44100    407.37271      0.02205    -1.320095    1.8412803   -104.90686    2.8961381    8.4363612    8.5859873    597.22237
   44200    324.10354       0.0221      1.79777    3.7543111   -105.05429    2.3041519    8.4889244    8.5864073    600.97279
   44300    318.93719      0.02215  -0.79163149    3.5182395   -105.37611    2.2674227     8.265093    8.5868274     585.1553
   44400    258.99162       0.0222  -0.84536542      3.33256   -105.41022    1.8412512    8.4512153    8.5872474    598.36172
   44500    271.84238      0.02225    1.9586845    4.0784429   -105.50768    1.9326112    8.3746551    8.5876675    592.97012
   44600    314.06275       0.0223   -1.5031928    2.7756529   -105.32512    2.2327688    8.3057809    8.5880876    588.12223
   44700    291.73143      0.02235   -0.4986843    3.7155107   -104.97564    2.0740086    8.4582227    8.5885076    598.94574
   44800    337.99356       0.0224    2.0421554    4.2020448   -105.23911    2.4029003    8.3657701    8.5889277    592.42794
   44900    349.99636      0.02245    -1.739588    3.4244057   -105.45638    2.4882319    8.3338249    8.5893477    590.19458
   45000    296.78796       0.0225   0.47281488    3.7950894   -105.32465     2.109957    8.4453154    8.5897678    598.11949
   45100    314.89355      0.02255   0.39439944    3.7871576   -105.54521    2.2386752    8.3763204    8.5901879     593.2621
   45200    342.94977       0.0226  -0.23116619    4.0658009   -105.71784    2.4381356    8.3184569    8.5906079    589.19266
   45300    324.67005      0.02265  -0.68811179    4.0160852   -105.23668    2.3081794    8.4200901     8.591028    596.42046
   45400    373.65355       0.0227    1.0033864    3.8597732   -105.20534    2.6564182    8.4348031     8.591448    597.49184
   45500    368.75535      0.02275  -0.29666518    3.6762236   -105.42261    2.6215954    8.3676362    8.5918681    592.76295
   45600    278.40785       0.0228 -0.099531879    4.0169473    -105.3882    1.9792872    8.3557366    8.5922881    591.94892
   45700    289.54769      0.02285 0.0077975582    3.8376276    -105.5252    2.0584837    8.3527675    8.5927082    591.76751
   45800    357.73686       0.0229 -0.089053558    3.9082047   -105.74149    2.5432615    8.3453885    8.5931283    591.27363
   45900    333.15584      0.02295  -0.12480117    3.6661506   -105.40608    2.3685074    8.3829004    8.5935483     593.9604
   46000    373.56109        0.023     0.245899    3.5965454   -105.25222    2.6557609    8.3983638    8.5939684    595.08512
   46100    304.60118      0.02305  -0.47024758    3.4934876   -104.42192    2.1655036     8.436547    8.5943884     597.8199
   46200    337.85505       0.0231    1.2664816    4.4185632   -104.90448    2.4019156    8.4347636    8.5948085    597.72274
   46300    288.86995      0.02315  -0.73603395    4.0402849    -105.3104    2.0536654    8.3193716    8.5952285    589.57439
   46400     296.2444       0.0232  -0.30649385    3.5100626   -105.51202    2.1060926    8.3764827    8.5956486    593.65073
   46500    319.75879      0.02325    0.4885574    4.0233319   -105.65677    2.2732637    8.3853986    8.5960687    594.31166
   46600    277.76558       0.0233   -0.2061209    4.0347539   -105.30684     1.974721    8.3475123    8.5964887    591.65539
   46700    316.09285      0.02335 -0.072109088    4.0482876   -105.17405    2.2472014    8.3768672    8.5969088    593.76502
   46800    353.46928       0.0234  0.013375031      3.29724   -105.18041     2.512922    8.3880408    8.5973288    594.58607
   46900    305.40241      0.02345   0.21887403    3.5774478    -105.2637    2.1711998    8.3974689    8.5977489    595.28346
   47000    305.89884       0.0235  -0.29822669    3.5567862   -105.43952    2.1747291    8.3851305     8.598169    594.43786
   47100    304.66279      0.02355   0.12668481    3.8332362   -105.41721    2.1659416    8.3875016     8.598589      594.635
   47200    292.09508       0.0236   0.12551675    3.6256033   -105.37341    2.0765939    8.3705589    8.5990091    593.46283
   47300     310.1831      0.02365  -0.25865592    3.6587046   -105.31131    2.2051872    8.4055316    8.5994291    595.97147
   47400    364.96027       0.0237   0.30271122    3.6850008   -105.16955     2.594615    8.4031492    8.5998492    595.83165
   47500    297.98278      0.02375  0.046685744    3.7128744   -104.98396    2.1184514    8.3816895    8.6002692    594.33906
   47600    277.64851       0.0238   0.03120996    3.6907999   -105.25182    1.9738888    8.3662262    8.6006893    593.27155
   47700    295.39804      0.02385  -0.42784701      3.22865    -105.3403    2.1000756    8.3376933    8.6011094    591.27708
   47800    320.08247       0.0239   0.29762961    3.1672598   -105.51721    2.2755649    8.4259454    8.6015294    597.56477
   47900     311.7223      0.02395   0.30459913    3.5571225   -105.43221    2.2161298    8.3743832    8.6019495      593.937
   48000    319.69232        0.024   -0.5862149    3.1155339   -105.43164    2.2727912    8.3447565    8.6023695    591.86468
   48100    345.42809      0.02405   0.22395201    3.6269775   -105.38992    2.4557547    8.3980362    8.6027896    595.67271
   48200    320.28636       0.0241   0.34896674    4.0001134   -105.20174    2.2770144    8.3353317    8.6032097    591.25395
   48300    283.20078      0.02415  -0.49080635    3.5151163   -105.31465    2.0133616    8.3704922    8.6036297    593.77699
   48400    269.67752       0.0242   0.20591554    3.7878988   -105.36119    1.9172205    8.3376331    8.6040498    591.47495
   48500    258.44362      0.02425  -0.15654127    3.4255424   -105.29897    1.8373553    8.3718892    8.6044698    593.93409
   48600    312.00497       0.0243   0.21294149    3.5205664   -105.33358    2.2181394    8.3666018    8.6048899    593.58795
   48700    320.38513      0.02435 -0.053713264    3.3374312   -104.97485    2.2777166     8.371656    8.6053099    593.97553
   48800    329.24839       0.0244 -0.064824015    2.9543991   -105.05824    2.3407282    8.4132703      8.60573    596.95723
   48900    320.27763      0.02445   0.24150805    3.8236559   -105.42357    2.2769523     8.349117    8.6061501     592.4342
   49000     257.3304       0.0245  -0.40055041    3.2817155   -105.35413     1.829441       8.3502    8.6065701    592.53997
   49100    247.69185      0.02455   0.21397697    4.1971787   -105.23728    1.7609177    8.4046928    8.6069902    596.43595
   49200     284.3311       0.0246   0.37711699    3.9751859   -105.27119    2.0213974    8.3531548    8.6074102     592.8075
   49300    340.65172      0.02465  -0.96819274    3.7247142   -105.35617     2.421798    8.4198601    8.6078303    597.57061
   49400    310.44211       0.0247    1.2901016    4.0051102   -105.14925    2.2070286    8.4138898    8.6082503    597.17603
   49500    312.00335      0.02475  -0.85000089    3.5953835   -105.44366    2.2181279    8.2896179    8.6086704    588.38454
   49600    241.41388       0.0248 -0.082588577    3.9497727   -105.46846    1.7162856     8.392624    8.6090905    595.72483
   49700    277.39208      0.02485   0.75623455    4.8036244   -105.63943    1.9720657    8.3515774    8.6095105    592.84018
   49800    287.61428       0.0249  -0.69162619    4.0195212   -105.29587    2.0447385    8.3563275    8.6099306    593.20631
   49900    276.80608      0.02495   0.26456826    3.9272445   -104.88854    1.9678996    8.4032943    8.6103506    596.56954
   50000    314.11176        0.025    0.3132751    3.9064737   -105.10862    2.2331172    8.3637483    8.6107707    593.79104
   50100     266.4071      0.02505   -1.0231131    4.2606516   -105.17687    1.8939701    8.3710552    8.6111908    594.33879
   50200    256.91275       0.0251    1.3818294    4.0128489   -105.21991    1.8264718    8.3871838    8.6116108    595.51296
   50300    275.41879      0.02515  -0.95980816    4.0585409   -105.19291     1.958037    8.3187675    8.6120309    590.68402
   50400    319.08327       0.0252   0.20835317    3.7635759   -105.40567    2.2684612     8.401926    8.6124509    596.61789
   50500    281.96793      0.02525   0.57793303    4.2570597   -105.16187    2.0045968    8.3242481     8.612871    591.13084
   50600    297.53871       0.0253   -1.1124105    3.7059388    -105.2933    2.1152943    8.3289557     8.613291    591.49398
   50700    253.93228      0.02535    1.0170842    4.3466555   -104.95972    1.8052828    8.3991891    8.6137111    596.51082
   50800    351.23427       0.0254  -0.42320475    4.1889348    -105.1743    2.4970326    8.2845393    8.6141312    588.39707
   50900    310.68721      0.02545  -0.85203438    3.8383158    -104.8643    2.2087711    8.4332407    8.6145512    598.98757
   51000    304.82293       0.0255    2.2310576    3.7638596   -105.35345    2.1670801     8.425259    8.6149713    598.44984
   51100    268.40262      0.02555   -1.8605622    3.6303204    -105.3343    1.9081569    8.2121724    8.6153913    583.34265
   51200    270.32814       0.0256  -0.18803899    3.5869743   -105.24617     1.921846    8.4592691    8.6158114    600.92419
   51300    289.91243      0.02565    1.5067316    3.9951956   -105.15179    2.0610768    8.3901873    8.6162315    596.04586
   51400     339.6338       0.0257   -1.2920693    3.4789532   -105.36221    2.4145613    8.2857925    8.6166515    588.65826
   51500    264.57333      0.02575   0.21374607    4.0089924   -105.04889    1.8809333    8.4452316    8.6170716    600.01475
   51600    280.19685       0.0258    1.2114276    4.3774071   -105.45276    1.9920057    8.3278185    8.6174916    591.70165
   51700    236.63526      0.02585   -1.5755589    4.0422355   -105.48213    1.6823129    8.3079621    8.6179117    590.31961
   51800    311.43773       0.0259   0.20714141    4.9941683   -105.83882    2.2141068    8.4583951    8.6183317    601.03787
   51900    323.43018      0.02595    1.4380904    4.7477875   -105.45469    2.2993648    8.3029345    8.6187518    590.01988
   52000    270.55869        0.026   -2.3013314    3.8789976   -104.94834     1.923485    8.3667055    8.6191719    594.58053
   52100    300.21245      0.02605    1.9273658    4.4487373   -105.12541    2.1343028     8.401088    8.6195919    597.05302
   52200    269.42765       0.0261  -0.83608501    4.3634857   -105.18175    1.9154442    8.2988289     8.620012    589.81436
   52300    240.73344      0.02615  -0.13982918    4.8470231   -105.33869    1.7114482    8.4040901     8.620432    597.32459
   52400    332.67746       0.0262   0.82529711    4.3986972   -105.86114    2.3651065    8.3937684    8.6208521    596.62004
   52500     310.8443      0.02625  -0.46165319    4.0230255   -105.07305    2.2098879    8.3039139    8.6212721    590.26204
   52600    312.50309       0.0263  -0.62895071    3.8727781   -104.82818    2.2216807    8.3565085    8.6216922    594.02953
   52700    336.02319      0.02635   0.87645985    4.3680587   -105.06369    2.3888923    8.4000886    8.6221123    597.15655
   52800    332.01329       0.0264  -0.39599548    4.6756724   -105.44352    2.3603847    8.3086649    8.6225323    590.68608
   52900    250.55057      0.02645   0.22921088    4.3881798    -105.1481    1.7812412    8.3722815    8.6229524    595.23776
   53000    324.51558       0.0265  -0.28922624    3.7425332   -105.55506    2.3070812    8.3261085    8.6233724    591.98387
   53100      324.614      0.02655   0.25599917    3.5717766   -105.40832    2.3077809    8.3783711    8.6237925    595.72873
   53200    321.22177       0.0266  -0.20434114    4.0606685   -105.13211    2.2836645    8.3698165    8.6242126    595.14947
   53300    384.60911      0.02665  -0.11948144    4.5368987   -105.23459    2.7343046    8.3520374    8.6246326    593.91418
   53400     281.0203       0.0267   0.34089591    4.3420817   -104.93381    1.9978598    8.4417293    8.6250527    600.32142
   53500    318.66255      0.02675   0.36730353    3.9022413   -105.47561    2.2654702    8.3361601    8.6254727    592.84288
   53600    285.16391       0.0268   -1.0704006     3.931706   -105.45849     2.027318    8.3533603    8.6258928    594.09504
   53700    272.76206      0.02685   0.86258038    4.9961618   -105.34427    1.9391495    8.4006416    8.6263128    597.48681
   53800    340.17515       0.0269 -0.0085838897    4.3517706   -105.12519    2.4184099    8.3076821    8.6267329    590.90393
   53900    356.20441      0.02695   -1.0363092    3.9936004   -105.09717    2.5323668    8.4666209     8.627153    602.23816
   54000      309.861        0.027      1.59834    4.9414437   -105.16778    2.2028973     8.431125     8.627573    599.74251
   54100    321.13247      0.02705  -0.86083028     4.486168   -105.49162    2.2830296    8.2998131    8.6279931    590.43047
   54200    261.37982       0.0271  -0.18440413    5.1663894   -105.24971    1.8582296    8.4228646    8.6284131    599.21325
   54300    283.43091      0.02715   0.77428013     4.836876   -105.28975    2.0149976    8.3729184    8.6288332    595.68902
   54400    308.21133       0.0272   -1.0027474    4.6844162   -104.86938    2.1911693    8.3385233    8.6292533    593.27086
   54500    338.83603      0.02725 -0.068088187    4.6861746   -104.97053    2.4088897    8.4608005    8.6296733    601.99997
   54600     314.0713       0.0273    1.5318538    4.8227522   -105.22599    2.2328296    8.4190541    8.6300934     599.0588
   54700    288.85328      0.02735   -1.1804207    4.8870419   -105.32776    2.0535469    8.3035413    8.6305134    590.86823
   54800    282.08189       0.0274 -0.080630321    4.9731743   -105.30549     2.005407    8.4149621    8.6309335    598.82592
   54900     346.3887      0.02745    1.0151185    4.7303357   -105.65147     2.462584    8.3768115    8.6313535    596.14006
   55000    336.44465       0.0275    -1.295937    4.1843286    -105.4345    2.3918886    8.3108198    8.6317736    591.47251
   55100    307.67335      0.02755   0.51889043    4.2555262   -105.17552    2.1873446    8.4470894    8.6321937    601.19994
   55200    330.58961       0.0276   0.88276178    4.2985224   -105.25524    2.3502634    8.2982749    8.6326137    590.63718
   55300    314.12132      0.02765    -1.915939    4.2351793   -105.22031    2.2331852    8.4041195    8.6330338    598.19988
   55400    332.65949       0.0277    1.9100734    4.8791646   -105.48518    2.3649788    8.4447792    8.6334538    601.12326
   55500    229.33319      0.02775  -0.70668625    4.9760707    -105.0947    1.6304002    8.2484565    8.6338739    587.17702
   55600    257.34797       0.0278  -0.95621946    5.1780287   -105.42704     1.829566    8.3865803     8.634294    597.03859
   55700      329.625      0.02785    1.5989044     5.407568   -105.33548    2.3434057     8.427423     8.634714    599.97535
   55800    314.65497       0.0279  -0.81208245    4.1989958   -105.05156    2.2369791    8.2725077    8.6351341    588.97509
   55900    322.76632      0.02795  -0.56950061    4.6400726   -105.33292    2.2946451    8.4327426    8.6355541    600.41249
   56000    272.22763        0.028     1.412173    4.6929638   -105.26427    1.9353501    8.3676206    8.6359742    595.80477
   56100    291.39766      0.02805   -1.0369797    4.6383203   -105.55275    2.0716357    8.2753956    8.6363942    589.26667
   56200    230.42577       0.0281  -0.14698689    5.0506655   -105.26416    1.6381678    8.4157064    8.6368143    599.28694
   56300     297.0337      0.02815   0.90336362    5.2276714   -105.32434    2.1117041    8.3550998    8.6372344    595.00005
   56400    356.16329       0.0282    -0.870347    4.3725966   -105.40977    2.5320745    8.3488623    8.6376544    594.58477
   56500    260.97274      0.02825   0.33167037    4.9515962   -104.82194    1.8553356    8.4068471    8.6380745    598.74342
   56600    339.48819       0.0283   0.67431422    4.5756373   -105.44498    2.4135261    8.3539965    8.6384945    595.00829
   56700    305.25118      0.02835   -1.2627004    4.9072732   -105.57313    2.1701247     8.378438    8.6389146    596.77813
   56800    243.31416       0.0284   0.95287247    4.8668167   -105.35361    1.7297953    8.3966144    8.6393346    598.10188
   56900    267.43247      0.02845  0.010653988    4.7228765    -105.2063    1.9012598     8.328116    8.6397547    593.25149
   57000    365.05886       0.0285   -1.0454903    4.5882161   -105.47668    2.5953159    8.3716666    8.6401748     596.3828
   57100    319.92063      0.02855    1.3874079    4.8931592   -105.11314    2.2744143    8.3891833    8.6405948    597.65972
   57200     304.9926       0.0286  -0.98985176     4.227089   -105.06423    2.1682863    8.3340464    8.6410149    593.76054
   57300    287.60025      0.02865   0.43268781    3.6624193   -105.27836    2.0446387    8.3860001    8.6414349    597.49103
   57400    255.53628       0.0287   0.28929828    4.8793079   -105.56031    1.8166861    8.3245023     8.641855    593.13822
   57500    226.17859      0.02875  -0.78131509    5.2218782   -105.26533    1.6079733    8.3129723    8.6422751    592.34548
   57600    284.01635       0.0288   0.69520145    5.1086385   -105.35646    2.0191597    8.3769753    8.6426951    596.93506
   57700    301.26521      0.02885  -0.42397118    4.5190778   -105.24196    2.1417872    8.3272069    8.6431152    593.41745
   57800    312.88229       0.0289   0.19803413    4.8554506    -105.0795    2.2243765    8.3555045    8.6435352    595.46295
   57900    285.89453      0.02895   0.16535022     4.522787   -104.64742    2.0325122    8.3419476    8.6439553    594.52569
   58000    360.56373        0.029  -0.53299546    4.0592298   -104.89921    2.5633586    8.3630863    8.6443753     596.0612
   58100    316.51151      0.02905   0.85884867    4.4887521   -105.14119    2.2501778    8.3705753    8.6447954    596.62395
   58200    262.78639       0.0291  -0.71626671    4.5307002    -105.1113    1.8682294    8.2919471    8.6452155    591.04834
   58300    317.53689      0.02915 -0.017396891    4.8049004   -105.46933    2.2574675    8.4186542    8.6456355    600.10915
   58400    282.44318       0.0292   0.95193245    4.3150422   -105.25407    2.0079755    8.3601959    8.6460556    595.97101
   58500    313.50255      0.02925   -1.1873998    5.1004263    -105.1112    2.2287862    8.3029401    8.6464756    591.91819
   58600    308.72473       0.0293   0.09540886    4.5901888   -104.64663    2.1948192    8.4759181    8.6468957    604.27918
   58700     309.3039      0.02935    1.0942832    4.5533598   -104.66193    2.1989367     8.374201    8.6473158     597.0564
   58800    276.58328       0.0294  -0.83716679    3.9363546   -104.88127    1.9663158    8.3260732    8.6477358    593.65386
   58900    282.87299      0.02945  -0.14793761    4.7646683   -105.35909    2.0110312    8.3956901    8.6481559    598.64666
   59000      299.591       0.0295   0.69115305    4.9926472   -105.41814    2.1298847    8.3764123    8.6485759    597.30109
   59100    315.99742      0.02955  -0.65560733    4.8196277   -105.27308     2.246523     8.359692     8.648996    596.13776
   59200    314.11054       0.0296 -0.043483315    5.0537371   -104.97777    2.2331086     8.428925     8.649416    601.10402
   59300    325.69687      0.02965    1.1659663     5.209358   -104.97946    2.3154794    8.3737685    8.6498361    597.19957
   59400    340.12711       0.0297   -1.5049552    4.3795438   -105.22278    2.4180684     8.363615    8.6502562    596.50441
   59500    291.80326      0.02975    1.2522519    4.5702165   -105.31369    2.0745193    8.4336327    8.6506762    601.52738
   59600    293.85063       0.0298   -0.3701162    5.0047435   -105.49569    2.0890746    8.2987296    8.6510963    591.93418
   59700    288.20086      0.02985  -0.93593991    4.9697585   -105.33397    2.0489087    8.3797389    8.6515163    597.74146
   59800    307.35142       0.0299   0.98377178    4.5062227   -104.88084    2.1850559     8.432524    8.6519364    601.53592
   59900    336.35896      0.02995  -0.29499629    4.4442797   -104.90866    2.3912795     8.328444    8.6523564    594.14019
   60000      280.216         0.03   0.23758682    4.5793669   -104.81743    1.9921419    8.4150526    8.6527765    600.34788
   60100    326.72642      0.03005  -0.14947115    5.0701285   -105.27337    2.3227987    8.3466632    8.6531966    595.49774
   60200    326.86958       0.0301 -0.0057266995    4.6157169   -105.39068    2.3238165     8.377715    8.6536166    597.74217
   60300    272.21205      0.03015 0.0056325421     5.022679   -105.36675    1.9352393    8.3983354    8.6540367     599.2425
   60400    229.64801       0.0302   0.13209454    5.2945839    -105.4802    1.6326384    8.3285595    8.6544567    594.29266
   60500    265.28984      0.03025   -0.4277046    5.5987486   -105.47963    1.8860272    8.4006896    8.6548768    599.46867
   60600    269.67018       0.0303   0.51047509    4.9293798   -104.95301    1.9171684    8.3907012    8.6552969    598.78496
   60700    319.74545      0.03035  0.011789101    4.4518962   -105.06427    2.2731689    8.3272071    8.6557169    594.28268
   60800    337.40494       0.0304   -1.1323552    4.4840332   -105.17318    2.3987156    8.4156347     8.656137    600.62258
   60900    329.36246      0.03045    2.0263299    4.3634501   -105.34357    2.3415391    8.4010015     8.656557    599.60731
   61000    306.77174       0.0305   -1.5656659    4.5943235    -105.5869    2.1809348    8.2774657    8.6569771    590.81881
   61100    243.47113      0.03055   0.11872793    4.5939477   -105.20584    1.7309112    8.4257932    8.6573971    601.43514
   61200    302.44682       0.0306   0.73552067    4.8855202    -105.2137    2.1501876    8.3805704    8.6578172    598.23615
   61300     323.8546      0.03065  -0.70290594    3.9726819   -104.88261    2.3023821    8.3238497    8.6582373    594.21604
   61400    388.31727       0.0307    0.4238369    4.5880563   -104.47722    2.7606671    8.4005609    8.6586573    599.72134
   61500    407.09193      0.03075   0.13464235    3.8014122   -105.01171    2.8941419     8.374516    8.6590774    597.89097
   61600      303.321       0.0308  -0.21966665    4.6255664   -104.88303    2.1564024    8.3609473    8.6594974    596.95121
   61700    304.49277      0.03085  -0.39190627    4.5912778   -105.26219    2.1647329      8.39401    8.6599175    599.34087
   61800    263.32198       0.0309   0.92917399    5.1117899    -105.2916     1.872037    8.3874655    8.6603376    598.90264
   61900    299.16227      0.03095  -0.75842085    5.1977221   -105.48921    2.1268367    8.3010064    8.6607576    592.75782
   62000    335.53915        0.031  0.020919951    4.7634853   -105.20325    2.3854511    8.3984165    8.6611777    599.74277
   62100    291.70655      0.03105   0.41896908    4.5910539   -104.69657    2.0738317    8.3843995    8.6615977    598.77083
   62200     282.8117       0.0311  -0.27658424    4.8145677   -104.77401    2.0105954    8.3204535    8.6620178    594.23295
   62300    267.30482      0.03115 -0.063549312    4.9648394   -104.90605    1.9003523    8.4089712    8.6624378    600.58386
   62400    313.71185       0.0312   0.73175917    5.4496979   -105.46127    2.2302741    8.3776455    8.6628579    598.37554
   62500     289.0747      0.03125   -1.1041738    5.3000466   -105.60918    2.0551211    8.3250664     8.663278    594.64889
   62600    243.11791       0.0313   0.81928067    5.8529438   -105.65617    1.7284001    8.4116684     8.663698    600.86389
   62700    289.55895      0.03135  -0.26383538    5.7870373   -105.63914    2.0585638    8.3150208    8.6641181    593.98894
   62800    273.41583       0.0314  -0.48482708    4.9586763   -105.14254    1.9437973    8.3709988    8.6645381    598.01676
   62900     280.8337      0.03145   0.78037677    5.2273593   -104.94761    1.9965333    8.3718477    8.6649582     598.1064
   63000    315.25198       0.0315  -0.22540546    4.3330029   -105.03294    2.2412234    8.3515989    8.6653782     596.6887
   63100    280.76101      0.03155  -0.25978261    4.9378504    -104.9858    1.9960165    8.3821444    8.6657983    598.90009
   63200    307.06504       0.0316   0.44172603    4.9161071    -105.5351    2.1830199    8.3395295    8.6662184    595.88415
   63300    247.03565      0.03165  -0.37863372    5.4480368   -105.33731    1.7562525    8.3307851    8.6666384     595.2882
   63400    313.95421       0.0317  -0.25593894    5.0323237   -105.43114    2.2319971    8.3765823    8.6670585    598.58971
   63500    291.05609      0.03175   0.79867507    5.0402454   -104.84541    2.0692074    8.3575571    8.6674785    597.25911
   63600    313.45212       0.0318   -0.6299155    4.9741746   -104.90208    2.2284277    8.3770302    8.6678986    598.67974
   63700    325.01915      0.03185   0.66342155    5.2595183   -105.03976    2.3106613     8.372803    8.6683187    598.40664
   63800    307.61929       0.0319  -0.44930784    5.3210705   -105.55524    2.1869603     8.309767    8.6687387    593.93022
   63900    249.94726      0.03195 -0.082885898    5.3627991   -105.30913     1.776952    8.4101556    8.6691588    601.13449
   64000    266.58526        0.032   0.49928355     5.179442   -105.08012    1.8952367    8.2899756    8.6695788    592.57307
   64100    294.84216      0.03205   -1.0090547    4.5948825    -104.9977    2.0961238     8.397904    8.6699989    600.31695
   64200    280.90663       0.0321    1.3676704    5.1699019   -104.81657    1.9970518    8.3541186    8.6704189    597.21593
   64300    311.03425      0.03215   -1.2194141    4.7588188   -105.04493    2.2112383    8.3292572     8.670839    595.46749
   64400    281.88844       0.0322   0.51426666    5.4426323   -105.27664    2.0040317    8.4046744    8.6712591    600.88825
   64500    283.18225      0.03225   0.45234055    5.3267839   -105.69043    2.0132298    8.3431201    8.6716791    596.51635
   64600    272.22495       0.0323  -0.56534574    5.8036342   -105.38536     1.935331    8.3336478    8.6720992    595.86797
   64700    279.26529      0.03235  -0.12051431    5.1852546   -104.97221    1.9853829    8.3289461    8.6725192    595.56064
   64800    316.77271       0.0324   0.12062761    5.0639734   -105.05418    2.2520348    8.3740381    8.6729393    598.81394
   64900    302.41912      0.03245   0.12205494    5.1870595   -105.06573    2.1499907    8.4173241    8.6733594     601.9384
   65000    263.00707       0.0325   0.85280964    5.2695562   -105.23826    1.8697983     8.326623    8.6737794    595.48104
   65100     293.9364      0.03255   -1.6515893    5.2815063   -105.48595    2.0896844    8.3315646    8.6741995    595.86329
   65200    372.15009       0.0326   0.91754337    5.0222906   -105.40202    2.6457296    8.4185646    8.6746195    602.11458
   65300    358.78431      0.03265    0.4514817    5.1424758   -105.24462    2.5507082    8.3220291    8.6750396    595.23897
   65400    298.97218       0.0327   -1.4681599    4.5037812   -105.11921    2.1254853    8.3445615    8.6754596    596.87951
   65500    293.80225      0.03275    1.3760323    4.6837676    -105.0859    2.0887307    8.4121965    8.6758797    601.74652
   65600    336.71509       0.0328  -0.71997628    4.8607524    -105.2229    2.3938112    8.3198275    8.6762998    595.16794
   65700    231.80619      0.03285 -0.048678181    4.8274768   -104.95785    1.6479816    8.3854511    8.6767198    599.89144
   65800    217.16833       0.0329   0.90085703     5.739305   -104.91698    1.5439165     8.388698    8.6771399    600.15277
   65900    361.42582      0.03295   -0.8742201     4.960235   -105.46565    2.5694875    8.3002326    8.6775599    593.85244
   66000    328.58559        0.033  -0.19519985    5.2828459   -105.23403    2.3360162    8.4723375      8.67798    606.19528
   66100    312.49772      0.03305    1.6692931    5.1534714   -105.12794    2.2216426    8.3606892       8.6784    598.23581
   66200     308.3435       0.0331    -1.825269    4.8999468   -104.84517    2.1921089    8.2784617    8.6788201    592.38082
   66300     329.5559      0.03315   0.30937082    5.3861449   -105.12952    2.3429144    8.4574486    8.6792402    605.21786
   66400    278.24979       0.0332    1.3395966     5.220235    -105.3593    1.9781635     8.350872    8.6796602    597.62012
   66500    268.45145      0.03325   -2.0724475    5.0748943   -105.25384    1.9085041    8.3117643    8.6800803    594.85021
   66600    337.65065       0.0333    1.1143591    4.8095499   -105.24465    2.4004625    8.4570468    8.6805003    605.27698
   66700    287.14984      0.03335   0.70792768      5.40932    -104.8282    2.0414367     8.300602    8.6809204    594.10885
   66800    310.87935       0.0334    -1.626477    4.8946115   -104.98813     2.210137    8.3611341    8.6813405    598.47035
   66900    324.71235      0.03345     1.268338    5.4639897   -105.12151    2.3084801    8.4685082    8.6817605    606.18526
   67000    265.41802       0.0335   0.19267876    5.2117819   -105.33681    1.8869385    8.2782541    8.6821806    592.59533
   67100    262.80421      0.03355   -1.4448671    4.8275133   -105.51608    1.8683561    8.3351357    8.6826006    596.69605
   67200    268.53584       0.0336    1.1652571    6.0360337   -105.21497     1.909104    8.4057412    8.6830207    601.77967
   67300    319.39524      0.03365   0.19302592     5.565825   -105.25248    2.2706791    8.2854914    8.6834407     593.1995
   67400    313.59459       0.0337    -1.754775    5.6931385   -105.12464    2.2294406    8.3602639    8.6838608    598.58179
   67500    306.80125      0.03375    1.6682396    5.4062857   -104.84658    2.1811445    8.4570369    8.6842809    605.53987
   67600    349.65034       0.0338   -0.3859806    5.4810533   -104.76463    2.4857719    8.3129501    8.6847009    595.25178
   67700    380.91448      0.03385  -0.32356397    4.5821215   -104.94178    2.7080384    8.4181084     8.685121    602.81083
   67800    329.07712       0.0339   0.75097507    5.6189194    -105.1291    2.3395106    8.3857581     8.685541     600.5233
   67900    306.82822      0.03395  -0.41905129    5.5252546    -105.3306    2.1813363     8.296808    8.6859611    594.18212
   68000    257.93683        0.034  -0.41698356     5.847329   -105.13043    1.8337524    8.3781205    8.6863812    600.03439
   68100    332.27811      0.03405   0.84928579    5.6586541   -105.26676    2.3622674    8.3611905    8.6868012    598.85084
   68200    345.31327       0.0341  -0.30509876    4.9829752   -105.22671    2.4549384    8.3118895    8.6872213    595.34856
   68300    265.30073      0.03415  -0.83139308    5.2114081   -104.82055    1.8861046    8.3851302    8.6876413    600.62355
   68400    269.19029       0.0342   0.70208086    5.9237096   -104.81014    1.9137567    8.4477882    8.6880614    605.14097
   68500    310.89733      0.03425   0.58831141    5.8480135   -104.87122    2.2102649    8.3141788    8.6884814    595.59892
   68600     333.6268       0.0343   -1.2498803    5.4656975   -104.91554    2.3718557    8.3476631    8.6889015    598.02653
   68700    313.39449      0.03435      1.18821    4.7980273   -104.98315     2.228018    8.3656824    8.6893216     599.3464
   68800    277.57057       0.0344  -0.63155993    5.1270254   -105.17296    1.9733346    8.2889558    8.6897416    593.87815
   68900    277.35182      0.03445   0.01123379    5.7957412   -105.16196    1.9717795     8.356674    8.6901617    598.75889
   69000    316.95611       0.0345   0.35769919    5.9435898   -105.06326    2.2533386    8.3373954    8.6905817    597.40645
   69100    321.05269      0.03455  -0.91202575    4.9362348   -104.84352    2.2824625    8.3723978    8.6910018     599.9435
   69200    298.35574       0.0346    1.0786494    5.0605267   -104.49045    2.1211028    8.3789795    8.6914219    600.44415
   69300    341.53033      0.03465  -0.24075347    5.1956498   -104.87754    2.4280443    8.3268336    8.6918419    596.73617
   69400    282.68831       0.0347  -0.55736101    5.4810648   -105.06887    2.0097183    8.3771301     8.692262    600.36965
   69500    275.92333      0.03475   0.97183754    5.4798835   -105.17768     1.961624    8.3662629     8.692682    599.61979
   69600    288.34881       0.0348  -0.81329892    5.8932979   -105.22992    2.0499605    8.3043176    8.6931021    595.20887
   69700     311.1295      0.03485   0.25746116    5.5328968   -105.08106    2.2119155    8.3522935    8.6935221    598.67644
   69800    290.99371       0.0349 -0.0049327265    5.3291268   -104.49872    2.0687639    8.3063846    8.6939422    595.41455
   69900    361.23854      0.03495  -0.58443001    5.2871079   -104.89033     2.568156     8.382884    8.6943623    600.92718
   70000    296.53519        0.035    1.3730195    5.4268267   -105.00508      2.10816    8.3638227    8.6947823    599.58974
   70100     307.1959      0.03505   -1.4484585    5.4955544   -105.54252    2.1839502    8.2863502    8.6952024    594.06455
   70200    269.15231       0.0351   0.94724525    5.5159849   -105.22873    1.9134866    8.4223393    8.6956224    603.84304
   70300    340.26394      0.03515  -0.16198539    6.0796663   -105.26493    2.4190412    8.3077588    8.6960425    595.65692
   70400    359.98679       0.0352  -0.43341507    5.5910303   -105.18497    2.5592569    8.3447032    8.6964625    598.33469
   70500    308.97579      0.03525   0.50380787    6.0610769   -104.95866     2.196604    8.3819794    8.6968826    601.03652
   70600    271.45599       0.0353  -0.10361221     5.377495   -105.03146    1.9298642    8.3628564    8.6973027    599.69425
   70700    224.04434      0.03535   0.18029112    5.7270263   -105.27277    1.5928002    8.3099171    8.6977227    595.92679
   70800    243.95086       0.0354  -0.70863651    5.2448297   -105.42393    1.7343218    8.3215772    8.6981428    596.79179
   70900    279.38794      0.03545   0.75949784    6.0207571   -105.32049    1.9862549     8.390773    8.6985628    601.78331
   71000    282.91497       0.0355  0.025686176     5.095413   -105.01692    2.0113297    8.2805854    8.6989829    593.90937
   71100    329.20764      0.03555   -1.1981888    5.2183904   -105.09706    2.3404385     8.399653     8.699403    602.47836
   71200    309.75724       0.0356     1.458666    5.8439787   -104.98666    2.2021596    8.3956136     8.699823    602.21771
   71300    238.13512      0.03565 0.0029481633    5.2013566   -104.78162    1.6929759    8.2762441    8.7002431    593.68399
   71400    282.12175       0.0357   -1.7146931    4.8177905   -105.38734    2.0056904    8.3433276    8.7006631    598.52502
   71500    227.95341      0.03575    2.0685737    5.2034758   -105.29348     1.620591    8.4109673    8.7010832    603.40642
   71600    286.19361       0.0358  -0.99334254    5.3699959   -105.29836    2.0346385    8.2318066    8.7015032    590.58186
   71700     281.5949      0.03585  -0.95606202    4.7910744   -104.88952    2.0019449    8.4123706    8.7019233    603.56536
   71800    327.81147       0.0359    1.9617887    5.6231149   -105.02385    2.3305127    8.4433481    8.7023434    605.81716
   71900    304.90899      0.03595   -1.2593554    4.0145493   -104.85212    2.1676919    8.2419312    8.7027634    591.39388
   72000    291.56559        0.036  -0.03592246    4.9444119   -105.07461    2.0728295    8.4451792    8.7031835    606.00704
   72100     255.8766      0.03605    1.1477378    5.2103506   -105.21605    1.8191055    8.3253146    8.7036035    597.43466
   72200    234.63713       0.0361   -1.2121413    4.9823162   -105.14502    1.6681076    8.2438485    8.7040236     591.6171
   72300     280.5524      0.03615  -0.25541807    5.2420231   -104.98747    1.9945334    8.4184296    8.7044437    604.17502
   72400    319.83418       0.0362    1.4094312    5.1739054   -104.86685    2.2737997    8.3250626    8.7048637    597.50308
   72500    325.19615      0.03625   -1.1721169    5.7365069   -104.89026    2.3119196    8.3740313    8.7052838    601.04664
   72600    297.88951       0.0363   0.63854176    5.6581824   -105.05433    2.1177883    8.3907437    8.7057038    602.27523
   72700    231.65977      0.03635  0.071310171    5.8954907   -104.91763    1.6469407    8.3344104    8.7061239    598.26058
   72800    254.55968       0.0364  -0.58872802    6.0434811   -104.97079    1.8097432    8.3187726    8.7065439    597.16687
   72900    334.13455      0.03645    0.1441365    6.0109103   -104.78808    2.3754654    8.3808038     8.706964    601.64884
   73000    310.92419       0.0365   0.42999888    5.7365363   -104.73314    2.2104558    8.3744842    8.7073841    601.22417
   73100    291.71644      0.03655  -0.42255135     5.464915   -104.78965     2.073902     8.314662    8.7078041    596.95818
   73200    316.16416       0.0366   0.25145222    5.9042869   -105.18587    2.2477084    8.3823272    8.7082242    601.84529
   73300    264.47808      0.03665   0.40518294    6.0940836    -105.3242    1.8802561     8.313861    8.7086442    596.95826
   73400    250.38568       0.0367   -1.0204814    5.7483989   -105.18324    1.7800689    8.3399986    8.7090643     598.8639
   73500    309.97183      0.03675   0.41300929    5.9710737   -105.28958    2.2036852    8.3777449    8.7094843    601.60333
   73600     306.2528       0.0368   0.44085917    6.4049902   -105.08166    2.1772455    8.3489544    8.7099044    599.56481
   73700    296.44805      0.03685  -0.31642672    5.6877035   -104.95864    2.1075405    8.3529824    8.7103245      599.883
   73800     266.8731       0.0369   0.10120205    5.6318857   -104.71444     1.897283    8.3839235    8.7107445    602.13413
   73900    311.56797      0.03695  0.019823919    5.6249502    -104.8738    2.2150327    8.3115606    8.7111646    596.96581
   74000     308.4891        0.037  -0.90648728    4.5499878   -104.88739     2.193144    8.3958287    8.7115846    603.04732
   74100    264.89273      0.03705    1.9464714    5.2597923   -104.83398     1.883204    8.3969519    8.7120047    603.15707
   74200    256.23129       0.0371   -1.6070185    5.7746118   -104.90185    1.8216272    8.2575742    8.7124248    593.17411
   74300    274.41796      0.03715   0.12469052    6.4734326   -105.15963    1.9509218    8.4496862    8.7128448    607.00353
   74400    339.79861       0.0372    1.5065132    6.7283512   -105.37453    2.4157329    8.2984972    8.7132649    596.17125
   74500     314.8927      0.03725   -2.3569457    5.7964879   -104.80133    2.2386692    8.3008811    8.7136849    596.37126
   74600    310.09192       0.0373    1.0667095     5.960015   -104.51909     2.204539    8.4879242     8.714105    609.83864
   74700     379.9167      0.03735   0.88323991    5.8555351   -104.79074    2.7009448    8.3494576     8.714525    599.91904
   74800     304.6481       0.0374     -1.57701    5.7087581    -105.0333    2.1658372    8.3531689    8.7149451    600.21463
   74900    265.04586      0.03745    1.2343017    5.4415213   -105.00156    1.8842926    8.4270025    8.7153652    605.54911
   75000    294.49296       0.0375  -0.23509062    5.8852267   -105.07265    2.0936411     8.279104    8.7157852    594.95007
   75100    308.24082      0.03755   -0.9664945    6.1350971   -104.88489     2.191379    8.3743388    8.7162053     601.8228
   75200    298.09685       0.0376    1.7324799      6.50573   -104.61921    2.1192623    8.4298624    8.7166253     605.8422
   75300    382.97766      0.03765   -1.2483489      6.05391   -105.03937    2.7227061    8.2975037    8.7170454    596.35851
   75400    282.42305       0.0377  -0.22998842    6.0571709   -104.73017    2.0078325    8.3905233    8.7174655    603.07308
   75500    266.02786      0.03775    1.1479648     6.247557   -105.07299     1.891274    8.3923989    8.7178855    603.23696
   75600    282.60766       0.0378  -0.40033882    6.1983418   -105.26575    2.0091449    8.2769309    8.7183056     594.9659
   75700    288.62255      0.03785  -0.84393186    5.9501837   -104.94863    2.0519066    8.4091377    8.7187256    604.49837
   75800    332.15039       0.0379    1.0552322    5.9517943   -104.96738    2.3613594    8.3754417    8.7191457    602.10511
   75900     276.6166      0.03795  -0.18564742    5.7320352   -104.70527    1.9665526    8.3027123    8.7195657    596.90539
   76000    307.26065        0.038  -0.81020614    5.4875786   -104.99301    2.1844106    8.3559684    8.7199858    600.76307
   76100    325.64421      0.03805    1.0532994    6.0674342   -105.13368     2.315105    8.3931389    8.7204059    603.46456
   76200    296.37175       0.0381  -0.57613743    5.7501786   -105.24622    2.1069981    8.3127768    8.7208259    597.71533
   76300    264.60825      0.03815  -0.11846143    5.8982485   -105.14867    1.8811816    8.3507814     8.721246    600.47691
   76400    259.93452       0.0382   0.21536564    5.9174766   -104.80929    1.8479546    8.3948782     8.721666    603.67683
   76500    330.01226      0.03825   0.58228038    5.5479011   -104.80942    2.3461588    8.3547476    8.7220861    600.81998
   76600    290.28155       0.0383  -0.79041602    5.8661143   -104.59787     2.063701    8.3583198    8.7225061    601.10582
   76700    305.93691      0.03835   0.26657682    5.6768987   -104.87501    2.1749997    8.3598449    8.7229262    601.24445
   76800    337.78654       0.0384   0.30780645    6.0667052   -105.15306    2.4014286    8.3375282    8.7233463    599.66829
   76900    233.81701      0.03845  -0.56655409    5.9835791   -104.85324    1.6622771    8.3434084    8.7237663    600.12012
   77000    280.32072       0.0385   0.47979826    6.2707094   -105.39908    1.9928863    8.3829498    8.7241864    602.99326
   77100    338.48822      0.03855   0.11965569    6.2593481   -105.05704     2.406417    8.3129354    8.7246064    597.98585
   77200    369.69351       0.0386    -1.001298    6.0418825   -104.99981     2.628265    8.3882679    8.7250265     603.4339
   77300    277.35763      0.03865    1.2176647     5.729986   -104.56013    1.9718208    8.4152648    8.7254466    605.40515
   77400    297.39017       0.0387  -0.34108301    5.7246844   -104.89156    2.1142383     8.255844    8.7258666     593.9648
   77500     275.0491      0.03875  -0.90134732    6.0668021   -105.15579    1.9554088     8.390086    8.7262867    603.65187
   77600    286.66228       0.0388    1.2300157    6.4580925   -105.30804    2.0379704     8.390878    8.7267067    603.73791
   77700    337.21425      0.03885  -0.26933268    6.1307689   -105.23031      2.39736    8.2664383    8.7271268     594.8129
   77800    290.79616       0.0389   -1.4554794    6.4869349   -104.39586    2.0673595    8.4097104    8.7275468    605.15119
   77900     352.1331      0.03895    2.4222922    6.1057911   -104.80531    2.5034227    8.3969235    8.7279669    604.26014
   78000    323.41514        0.039   -1.6937612    5.2632503    -104.9855    2.2992578    8.2564566     8.728387    594.18045
   78100    228.10172      0.03905   0.10841161    5.7105787   -104.57433    1.6216453     8.438795     8.728807    607.33175
   78200    294.87236       0.0391    1.1757935    6.6229623   -105.02213    2.0963385    8.3293006    8.7292271    599.48039
   78300    276.48883      0.03915    -1.348332    5.6678123   -104.90587    1.9656442    8.3211072    8.7296471    598.91952
   78400    286.15806       0.0392   0.75465575    6.1486001   -104.67186    2.0343858    8.4187029    8.7300672    605.97322
   78500    328.94325      0.03925   -0.3379591    5.8426411    -104.4797    2.3385589    8.3196618    8.7304873    598.87311
   78600    326.36921       0.0393  -0.61053368    5.0654229   -104.57499    2.3202593    8.4292401    8.7309073    606.79006
   78700    277.28239      0.03935    1.3956247    5.8427178   -104.74225    1.9712859    8.3854696    8.7313274    603.66823
   78800    248.57458       0.0394  -0.35304403    6.3403859   -104.93939    1.7671933    8.2724696    8.7317474    595.56203
   78900    266.60256      0.03945  -0.72254143    6.6999951   -104.99464    1.8953597    8.3713282    8.7321675    602.70818
   79000    310.03126       0.0395   0.63853874    6.0374303    -104.9794    2.2041077    8.3928362    8.7325875    604.28575
   79100    348.78735      0.03955 -0.0041490543    6.0052568     -105.038    2.4796367    8.3838273    8.7330076    603.66615
   79200    314.21645       0.0396  -0.12351969    6.2138224   -104.89575    2.2338615    8.3337977    8.7334277    600.09269
   79300     266.0598      0.03965  0.009102277    5.9884648   -105.08436     1.891501    8.3257578    8.7338477     599.5426
   79400    248.99488       0.0397   -0.3653112    6.5760861   -105.28741    1.7701813    8.3738451    8.7342678    603.03439
   79500    261.10737      0.03975   0.88318646    6.5405157   -105.16864    1.8562927    8.3250334    8.7346878     599.5481
   79600     301.4925       0.0398  -0.88042915    6.2148463   -105.02584     2.143403    8.3108341    8.7351079    598.55429
   79700     290.9344      0.03985  -0.06782316    6.4504382   -104.77177    2.0683423    8.3984498    8.7355279    604.89354
   79800    308.96117       0.0399    1.1144489    6.2432235     -104.741    2.1965001    8.4067191     8.735948    605.51825
   79900    280.35362      0.03995  -0.96124847    5.7905083   -104.74278    1.9931202    8.2950681    8.7363681    597.50499
   80000     263.9734         0.04   0.29806381    6.0510473   -105.15025    1.8766682    8.3390957    8.7367881    600.70524
   80100    306.18257      0.04005 -0.060110068    5.9430696   -105.42994    2.1767462    8.3528844    8.7372082    601.72744
   80200    315.38346       0.0401  -0.15204184    5.9541681   -105.25476    2.2421582    8.3655424    8.7376282    602.66827
   80300    275.24902      0.04015   0.32237318    6.0657956   -104.84382    1.9568301    8.3309875    8.7380483    600.20773
   80400    314.94613       0.0402  -0.43039258    6.2372955   -104.93933    2.2390491    8.3729128    8.7384684    603.25725
   80500    353.71583      0.04025    1.0740157     6.244724    -105.0681    2.5146748    8.3575162    8.7388884    602.17689
   80600    281.65731       0.0403   -1.2840635    5.4985292   -104.85877    2.0023885    8.3399455    8.7393085    600.93977
   80700    277.12637      0.04035   0.64990144    6.2167884    -105.3177    1.9701767     8.350579    8.7397285    601.73489
   80800    269.68163       0.0404  0.073460106    5.6302881   -105.21716    1.9172498    8.2922498    8.7401486    597.56046
   80900     298.4057      0.04045  -0.96712451    6.2724618   -105.01801     2.121458    8.3779516    8.7405686    603.76536
   81000    332.32796       0.0405    1.4072124    5.7162544   -105.00068    2.3626218    8.4047838    8.7409887    605.72816
   81100    292.10104      0.04055  -0.76941929    5.6856693   -104.70294    2.0766363     8.307167    8.7414088    598.72175
   81200    251.74697       0.0406    0.1622146    5.4350051   -104.62965    1.7897468    8.3951926    8.7418288    605.09508
   81300    271.61595      0.04065  0.019785565    5.7876404   -105.15968    1.9310014    8.3230429    8.7422489    599.92362
   81400    248.50841       0.0407  0.086869401    5.9891102   -105.32045    1.7667228    8.3180402    8.7426689    599.59183
   81500    285.36724      0.04075  -0.26316281    6.0493411   -105.24819    2.0287636    8.3547083     8.743089    602.26392
   81600     293.9669       0.0408  -0.14042712    5.9091341   -104.77419    2.0899012    8.3547802    8.7435091    602.29805
   81700    328.23208      0.04085   0.75654188    6.1540989   -104.79626     2.333503    8.3760126    8.7439291     603.8577
   81800    351.80991       0.0409  -0.39673318    5.8810523   -104.94814     2.501125     8.314184    8.7443492    599.42904
   81900    328.63095      0.04095  -0.16059727    5.7010271   -105.18654    2.3363386    8.3596384    8.7447692    602.73513
   82000    263.85215        0.041   0.36973737    5.8749374   -105.10403    1.8758062    8.2889722    8.7451893    597.66876
   82100     290.8158      0.04105  -0.85542676    5.7314453   -105.17953    2.0674991    8.3143291    8.7456093    599.52589
   82200    268.54749       0.0411    0.7667213    6.3871862   -104.78417    1.9091868    8.4118165    8.7460294     606.5846
   82300    307.38385      0.04115   0.39474661    5.8702128   -104.88284    2.1852865    8.2847934    8.7464495    597.45353
   82400    291.11621       0.0412   -1.3112854    6.0863218    -104.8127    2.0696348    8.3507395    8.7468695    602.23812
   82500    328.38957      0.04125    1.2213647    5.9245672   -105.00346    2.3346226    8.4144003    8.7472896    606.85835
   82600    315.29821       0.0413  -0.49921281    5.8364523   -104.64461    2.2415521     8.282169    8.7477096    597.35033
   82700    293.83395      0.04135   -1.1244505    6.2385354   -104.34651    2.0889561    8.4390707    8.7481297    608.69607
   82800    292.69438       0.0414    2.6715365    5.6449265    -104.6208    2.0808545    8.4000202    8.7485497    605.90852
   82900     222.4331      0.04145   -2.1198952    5.4125704   -104.45686    1.5813454    8.2339951    8.7489698    593.96135
   83000    284.56677       0.0415  0.059261481    6.1568212   -105.01499    2.0230728    8.4653089    8.7493899    610.67654
   83100    300.47681      0.04155    1.5422952    5.8018039   -105.08488    2.1361822    8.3486694    8.7498099    602.29123
   83200    297.50864       0.0416   -1.7606718    5.8375647   -104.35284    2.1150806    8.2554601      8.75023     595.5955
   83300    365.86466      0.04165    0.6975936    5.7041245   -104.58623    2.6010446    8.4444869      8.75065    609.26221
   83400    344.84463       0.0417   0.75560233    5.2978442   -104.80748    2.4516067    8.3123174    8.7510701    599.75509
   83500    304.80897      0.04175   -1.3478922    5.1415292   -104.98863    2.1669808    8.3213165    8.7514902    600.43321
   83600    305.54327       0.0418    0.3565755    5.5117447   -105.05102    2.1722012    8.4084131    8.7519102    606.74688
   83700    355.65958      0.04185    1.0458926    6.2164659   -105.22697    2.5284935    8.3308112    8.7523303    601.17602
   83800    294.72824       0.0419   -1.5220023    5.6613271   -104.73756    2.0953138    8.3442383    8.7527503    602.17386
   83900     296.7024      0.04195    1.5667605    6.4692365    -104.7437    2.1093487    8.4089762    8.7531704    606.87489
   84000    342.72411        0.042   -1.0239571    5.7819151   -104.96477    2.4365312    8.2704842    8.7535904    596.90858
   84100    287.37696      0.04205  -0.31927404    5.5956117   -104.67824    2.0430513    8.4102528    8.7540105    607.02527
   84200      284.569       0.0421    1.3685638    6.5925823   -104.86807    2.0230887    8.3545249    8.7544306    603.03195
   84300    279.94738      0.04215   -1.2918959    6.2933725    -105.1827    1.9902321     8.267925    8.7548506    596.80978
   84400    289.99238       0.0422   0.53631123    6.4372795   -105.20261    2.0616452    8.3912558    8.7552707    605.74132
   84500    320.14024      0.04225   0.24095585    6.3624043   -104.79844    2.2759755    8.3321692    8.7556907    601.50488
   84600    297.44005       0.0423   -0.3803578    6.0856821   -104.57963     2.114593    8.3212784    8.7561108    600.74749
   84700    298.88942      0.04235  0.029489584    6.1512858   -104.67311     2.124897    8.3765603    8.7565309    604.76752
   84800    265.78538       0.0424   0.25445728    6.1057224   -104.79032    1.8895501    8.3340506    8.7569509    601.72729
   84900    258.91555      0.04245  -0.02850293    6.6441947   -105.07534    1.8407104     8.325277     8.757371    601.12266
   85000     275.6154       0.0425  -0.28696985    5.8239534   -105.02588    1.9594348    8.3257517     8.757791    601.18577
   85100    298.70213      0.04255   0.27793447    5.3507901   -104.92783    2.1235654     8.317774    8.7582111    600.63853
   85200     302.8507       0.0426  -0.44273928      6.01228   -104.94212    2.1530589    8.3784275    8.7586311    605.04742
   85300    261.97509      0.04265    1.1152286    6.1733856   -104.79475    1.8624616    8.3430289    8.7590512    602.52001
   85400    250.39019       0.0427   -1.2050023    6.6805051   -104.50108    1.7801009    8.3182495    8.7594713    600.75929
   85500     348.1801      0.04275   0.33739383    6.6762465   -104.69969    2.4753196     8.374798    8.7598913    604.87233
   85600     316.4764       0.0428   0.60701226    6.0075985   -104.71605    2.2499282    8.3373276    8.7603114    602.19489
   85700    301.84075      0.04285   -1.2351604    5.6706118   -104.84895    2.1458788    8.3165999    8.7607314    600.72656
   85800    283.18533       0.0429   0.95609621    6.1498361   -104.82885    2.0132518     8.405536    8.7611515    607.17972
   85900    305.21664      0.04295   0.25132639    5.4548084   -104.91189    2.1698791    8.2952182    8.7615716    599.23957
   86000    292.06943        0.043    -1.039502    5.5406273   -104.74921    2.0764116    8.3238267    8.7619916    601.33506
   86100    285.21941      0.04305    1.1038376    6.5629617    -104.7785    2.0277126    8.3828183    8.7624117     605.6258
   86200    268.31864       0.0431  -0.56024526    6.1653089    -104.6304    1.9075598    8.2660484    8.7628317    597.21826
   86300    312.61035      0.04315  -0.40385303    6.3110746   -104.69444    2.2224433    8.3852107    8.7632518    605.85672
   86400    334.21841       0.0432    1.0246554    6.2612853   -104.83409    2.3760616    8.3471881    8.7636718    603.13838
   86500    263.95832      0.04325  -0.70960679    5.7423839   -104.99991     1.876561    8.2803356    8.7640919    598.33654
   86600    326.67759       0.0433 0.00053011059    6.6027333   -105.33962    2.3224516    8.3660952     8.764512    604.56249
   86700    315.78094      0.04335   0.34642223    7.1958513   -105.06252    2.2449839    8.3021556     8.764932    599.97076
   86800     254.7462       0.0434  -0.62038803    6.4062117   -104.35695    1.8110692    8.3881672    8.7653521    606.21559
   86900    382.05487      0.04345   0.80185461    5.8822568    -104.7746    2.7161457    8.3393681    8.7657721    602.71775
   87000    308.12541       0.0435  -0.71564957    5.7048939   -104.69814    2.1905584     8.324811    8.7661922    601.69448
   87100    274.23732      0.04355    0.5846569    6.2458379   -104.77511    1.9496376     8.359916    8.7666122    604.26073
   87200    318.84862       0.0436   -0.1752566    6.3417213   -105.04857     2.266793    8.2914322    8.7670323    599.33939
   87300    327.90478      0.04365  -0.42116166    6.7983628   -104.99747    2.3311761    8.3903389    8.7674524    606.51784
   87400    270.40586       0.0437   0.84267526    6.7086615   -104.34531    1.9223985    8.3526831    8.7678724    603.82472
   87500    361.52545      0.04375  -0.64285237    6.4575627   -104.52475    2.5701957    8.3037559    8.7682925    600.31647
   87600    344.47908       0.0438   0.14816394    6.8053497   -104.67963    2.4490078    8.4299261    8.7687125    609.46709
   87700    291.49218      0.04385    0.7294623     6.774785   -104.77502    2.0723077    8.3046736    8.7691326    600.44035
   87800    281.10392       0.0439   -1.5088143     6.512505   -104.68257    1.9984543    8.3319046    8.7695527    602.43804
   87900    293.38314      0.04395    1.0748193       6.6717   -104.73656    2.0857511    8.4140641    8.7699727    608.40772
   88000    250.34384        0.044   0.23210427    7.3756036   -104.74139    1.7797715    8.2875511    8.7703928    599.28847
   88100     247.1812      0.04405   -1.3095399    6.5614175   -104.96308    1.7572872    8.3381576    8.7708128     602.9768
   88200    343.61009       0.0441    1.6514639    7.2602862   -105.17608    2.4428299     8.386513    8.7712329    606.50269
   88300    318.99419      0.04415   -1.1235029    6.5464716   -104.65038     2.267828    8.2456768    8.7716529    596.34613
   88400    314.97794       0.0442  0.013819012    5.8829142    -104.4955    2.2392751    8.3933076     8.772073     607.0522
   88500     398.4103      0.04425   0.73526479    6.2243518   -104.41605    2.8324215    8.3491839    8.7724931    603.88984
   88600    353.75301       0.0443  -0.78840666     5.958245   -104.49843    2.5149391    8.3181115    8.7729131     601.6712
   88700    290.93522      0.04435   0.14592109    6.2621204   -104.40484    2.0683481    8.3672028    8.7733332    605.25109
   88800     316.6232       0.0444   0.77512349    6.2729503   -104.77165    2.2509718    8.3713485    8.7737532    605.57996
   88900    275.92132      0.04445  -0.52132916    6.4495565   -104.89491    1.9616096    8.2694801    8.7741733    598.23948
   89000    280.40216       0.0445  -0.78787431    6.4767009   -105.12109    1.9934653    8.3829072    8.7745934    606.47418
   89100    295.04351      0.04455    1.8627774    6.5861652   -104.89154    2.0975552    8.3284789    8.7750134    602.56533
   89200    336.94121       0.0446   -1.9464721    6.1122178     -104.887    2.3954189     8.264693    8.7754335    597.97904
   89300    264.98026      0.04465   0.70224179    6.5258844   -104.37241    1.8838263    8.4589191    8.7758535    612.06126
   89400    337.59748       0.0447    1.3633678    6.4499825   -104.74046    2.4000845    8.3083943    8.7762736    601.19853
   89500    330.48775      0.04475   -2.3686436     5.922364   -104.74832    2.3495392    8.3031708    8.7766936    600.84932
   89600    216.65082       0.0448    1.2883962    5.7201617   -104.46904    1.5402374    8.4577147    8.7771137      612.062
   89700    322.23362      0.04485   0.67201333    7.3125699   -105.14595     2.290858    8.2665061    8.7775338    598.25337
   89800    289.28874       0.0449   -2.0669291    5.6962201     -104.839    2.0566428    8.3198184    8.7779538    602.14045
   89900    298.67619      0.04495    1.8207078    6.3065047    -104.6504     2.123381    8.4710059    8.7783739    613.11186
   90000    380.88644        0.045  -0.13899154    6.1378321   -104.57793     2.707839     8.236831    8.7787939    596.19135
   90100    308.61287      0.04505   -1.4931461    5.5956987   -104.07433    2.1940239    8.3902902     8.779214    607.32796
   90200    322.17218       0.0451    1.9651922    6.2441242   -104.55887    2.2904212     8.394875     8.779634    607.68891
   90300    323.91168      0.04515   -1.3002711    5.3641247   -104.75112    2.3027879    8.2771051    8.7800541    599.19244
   90400    276.41453       0.0452   -0.1617821    6.3477975   -104.71186     1.965116    8.3669453    8.7804742    605.72508
   90500    283.74891      0.04525    1.0727506    6.6163489   -104.98563    2.0172584    8.3830659    8.7808942    606.92117
   90600    295.09363       0.0453  -0.54137042    6.1090471   -104.93821    2.0979115    8.2622042    8.7813143    598.19958
   90700    363.22099      0.04535  -0.54448713     6.113464   -104.77945    2.5822499    8.3924334    8.7817343    607.65749
   90800    328.17168       0.0454   0.77198222    6.4966883   -104.62214    2.3330735    8.3972262    8.7821544     608.0336
   90900    303.80218      0.04545   0.29142941    6.8139764   -104.74144    2.1598233    8.2862808    8.7825745    600.02887
   91000    299.68486       0.0455   -1.2139413    6.6682781   -104.90697     2.130552    8.3731346    8.7829945    606.34715
   91100    292.95778      0.04555    1.3894844    6.6249604   -104.87226    2.0827271    8.3435031    8.7834146    604.23026
   91200    356.89867       0.0456   -1.3349375    6.3721349   -104.80533    2.5373026    8.3054673    8.7838346    601.50451
   91300    331.18411      0.04565   0.92879776    6.2479708   -104.26139    2.3544898    8.3819514    8.7842547    607.07272
   91400    332.74159       0.0457  -0.42655215    5.9246338   -104.52336    2.3655624    8.3183069    8.7846747      602.492
   91500    274.71177      0.04575  -0.17095168    6.2684899    -104.6639    1.9530106    8.3388792    8.7850948    604.01093
   91600    282.45406       0.0458   0.91478873    6.9678875   -104.83101    2.0080529    8.3481318    8.7855149    604.71003
   91700    278.82098      0.04585   -1.2789154    6.3077238   -104.68574    1.9822242    8.3362444    8.7859349    603.87782
   91800     334.7224       0.0459    1.0684614    6.8930399   -104.53774    2.3796447     8.359683     8.786355    605.60467
   91900    320.43691      0.04595  -0.63640111    6.9664594   -104.43462    2.2780846    8.3670853     8.786775     606.1699
   92000      294.377        0.046   0.32248739    6.8975098   -104.49076    2.0928168      8.34751    8.7871951    604.78064
   92100    295.16735      0.04605   0.19909106    7.6038904   -104.70452    2.0984356    8.3672258    8.7876152    606.23803
   92200    338.76371       0.0461  -0.29285248    6.8238677   -105.05371    2.4083756    8.3183107    8.7880352    602.72275
   92300     292.6681      0.04615  -0.32986786    7.1740577   -104.97102    2.0806676    8.4273293    8.7884553    610.65114
   92400    228.91186       0.0462      1.24416    7.4632771   -105.05317    1.6274049    8.3151157    8.7888753    602.54885
   92500    269.98282      0.04625   -1.5085019    5.9826242   -105.17803     1.919391    8.2706805    8.7892954    599.35752
   92600    262.28179       0.0463   0.30957366    6.9643831   -104.67725     1.864642    8.4565605    8.7897154    612.85712
   92700      334.031      0.04635   0.96322134    6.3066391   -104.93898    2.3747292    8.3437876    8.7901355    604.71323
   92800    331.05508       0.0464  -0.99504173    6.7543845   -104.82927    2.3535725    8.3407692    8.7905556    604.52336
   92900    273.61619      0.04645   0.38393902    7.1524487   -104.66034    1.9452217    8.3839192    8.7909756    607.67983
   93000    268.17866       0.0465   0.58258156    6.4763663   -104.91036    1.9065647    8.2879645    8.7913957    600.75358
   93100     238.6109      0.04655   -1.5729452    6.1315829   -104.62448    1.6963584    8.3244802    8.7918157    603.42925
   93200    377.30124       0.0466    1.6349333    6.6397009   -105.02981    2.6823507    8.4045817    8.7922358     609.2648
   93300    295.39003      0.04665  -0.56972403    5.9967655   -104.56703    2.1000187    8.2901074    8.7926558    600.99504
   93400    318.52745       0.0467  -0.62728419    6.4315893   -104.84653    2.2645097    8.3047251    8.7930759    602.08353
   93500    252.59196      0.04675    0.7690153    7.3036128   -104.65202     1.795754    8.3753758     8.793496    607.23463
   93600    256.04066       0.0468  -0.28283429     7.163254   -104.81008    1.8202719    8.3143724     8.793916    602.84054
   93700     303.1933      0.04685    0.1693064    6.6106096   -105.08546    2.1554945    8.3180328    8.7943361    603.13475
   93800    298.96771       0.0469  -0.45508349    6.7375312   -104.72875    2.1254535    8.3862584    8.7947561    608.11078
   93900    374.28355      0.04695    1.1155722    6.2037092   -104.79991     2.660897    8.3206754    8.7951762    603.38399
   94000    279.81568        0.047   -1.6746436    6.5702197   -104.29274    1.9892958    8.3515703    8.7955963     605.6533
   94100    329.58027      0.04705    1.7562781     7.175269   -104.88809    2.3430877    8.3834788    8.7960163    607.99633
   94200    292.52746       0.0471    -1.002301    6.6338495   -104.78851    2.0796678     8.255791    8.7964364     598.7646
   94300    231.07202      0.04715  -0.30393596    6.9800839   -104.85114    1.6427621    8.3829987    8.7968564    608.01958
   94400    228.38715       0.0472    1.0191042    7.5349568   -104.97202    1.6236746    8.3333085    8.7972765     604.4444
   94500    296.33434      0.04725  -0.39915941    6.6959576   -104.98139    2.1067321      8.29605    8.7976965    601.77064
   94600    288.08552       0.0473  -0.85668027    6.8069719   -104.63028    2.0480887    8.3545308    8.7981166     606.0416
   94700    344.94183      0.04735    1.1667239    6.4517634   -104.81821    2.4522977    8.3847878    8.7985367     608.2655
   94800     269.3955       0.0474  -0.42824301    7.0692658   -104.41363    1.9152156    8.3209563    8.7989567    603.66373
   94900    251.97122      0.04745  0.049685869    6.7619769   -104.64271     1.791341    8.3452708    8.7993768    605.45659
   95000    276.34298       0.0475   0.17916749     6.933026    -105.1213    1.9646073    8.3372724    8.7997968    604.90517
   95100    305.30113      0.04755  -0.32015908    7.0036143   -105.14919    2.1704798    8.2880395    8.8002169    601.36182
   95200    329.04614       0.0476  -0.11209545    7.0230751   -104.61011    2.3392903    8.3850294     8.800637    608.42823
   95300    380.77764      0.04765   0.68727701    6.1869582   -104.81555    2.7070655    8.2902624     8.801057    601.58053
   95400    274.07759       0.0477  -0.76479255    5.9964784   -104.39264     1.948502    8.2678023    8.8014771    599.97936
   95500    282.80435      0.04775  0.068913138    5.9897879   -104.57977    2.0105432    8.3465161    8.8018971    605.72038
   95600    286.37337       0.0478   0.61294912    7.0221429   -104.55832    2.0359165    8.3170395    8.8023172    603.61002
   95700    304.33061      0.04785  -0.54920706    6.5227998   -104.78134      2.16358    8.2720317    8.8027372    600.37222
   95800    252.35612       0.0479  -0.04279422    6.5654581   -104.67336    1.7940774    8.3871563    8.8031573    608.75685
   95900    302.99356      0.04795    1.1727616    6.7656766   -104.90765    2.1540745    8.2982523    8.8035774    602.33275
   96000    345.85901        0.048    -1.914448    5.8044356   -104.77403    2.4588182    8.2573643    8.8039974    599.39348
   96100    247.83642      0.04805    1.1694687    6.6513381   -103.88055    1.7619454    8.4481613    8.8044175    613.27249
   96200      345.431       0.0481     0.471399    6.4372027   -104.10959    2.4557754    8.2295879    8.8048375    597.43422
   96300    312.90845      0.04815    -2.229375    6.1655466   -104.25405    2.2245625    8.3562635    8.8052576    606.65929
   96400    285.46045       0.0482    2.7522518    7.2841812    -104.4631    2.0294262    8.4270385    8.8056776    611.82669
   96500    371.05303      0.04825   -1.0875215      7.20672   -105.01569    2.6379302    8.1786209    8.8060977     593.8192
   96600     290.1372       0.0483   -1.2538108    7.2844964   -104.82071    2.0626747    8.3928913    8.8065178    609.40565
   96700    238.34278      0.04835    2.0139496    7.7127777   -104.71884    1.6944522    8.3693828    8.8069378    607.72769
   96800     313.9144       0.0484   -1.0846726    7.1190103   -104.80606    2.2317141    8.2026613    8.8073579    595.64991
   96900    333.40682      0.04845  -0.96194125    7.1053353   -104.49372    2.3702918    8.4763497    8.8077779    615.55361
   97000    353.01829       0.0485    2.4746123     7.203731   -104.70255    2.5097157    8.3523751     8.808198    606.57949
   97100    295.56378      0.04855   -1.7705895    6.5873568   -104.48483    2.1012539    8.2602117    8.8086181    599.91486
   97200    282.48945       0.0486   0.11749401    7.1807801   -104.72681    2.0083045    8.3902218    8.8090381    609.38616
   97300     246.6263      0.04865    1.1080063    7.2081549   -104.99683    1.7533423    8.2753496    8.8094582     601.0716
   97400    248.71934       0.0487    -1.603549    7.2511856   -105.07659    1.7682224    8.2978528    8.8098782    602.73483
   97500    253.18346      0.04875   0.94462246    7.3398814   -104.31969    1.7999592    8.3714702    8.8102983    608.11121
   97600    371.55203       0.0488   0.17083981    7.4741737   -104.93358    2.6414778    8.3075412    8.8107183    603.49612
   97700    313.70551      0.04885  -0.91198161    6.8034073   -104.70998    2.2302291    8.3181643    8.8111384    604.29664
   97800    269.00177       0.0489    0.7113788    7.0754822   -104.54307    1.9124165    8.4002037    8.8115585    610.28572
   97900     261.0369      0.04895   0.11700198     6.902737   -104.43645    1.8557917     8.303925    8.8119785     603.3197
   98000    276.38409        0.049  -0.55014744    7.5560406   -104.36733    1.9648997    8.3204927    8.8123986    604.55224
   98100     352.6626      0.04905   0.12875164    6.6268506   -104.78329     2.507187     8.394819    8.8128186    609.98174
   98200    302.85377       0.0491   0.39467124    6.9881125   -104.52835    2.1530807    8.3844935    8.8132387     609.2605
   98300    307.82029      0.04915   0.26187444    7.1606517   -104.74051    2.1883893    8.2516808    8.8136588    599.63822
   98400    244.97236       0.0492   -1.1854915    6.9918971    -104.7077     1.741584    8.3232439    8.8140788    604.86745
   98500    269.82034      0.04925    1.2870004    7.1943176   -104.90225    1.9182359    8.3773102    8.8144989    608.82557
   98600    352.47629       0.0493  -0.72963922    6.9694776   -104.91329    2.5058625    8.2610511    8.8149189    600.40499
   98700    298.52876      0.04935  -0.39490676    7.0578216   -104.44791    2.1223329    8.4330056     8.815339    612.93168
   98800    321.35154       0.0494    1.3278137    7.2152516   -104.67522    2.2845871    8.3385743     8.815759    606.09706
   98900    268.46777      0.04945   -1.0994488    7.0405729   -104.45613    1.9086201     8.275873    8.8161791    601.56822
   99000    290.41191       0.0495   0.36363614     7.117284   -104.91336    2.0646277    8.3680135    8.8165992    608.29483
   99100    246.91625      0.04955     0.438083    7.1516788   -104.92582    1.7554037    8.2887624    8.8170192    602.56255
   99200    291.23604       0.0496   -1.2283124    7.1761269   -104.91222    2.0704867    8.3238301    8.8174393    605.14067
   99300    268.41506      0.04965    1.0154597    7.2581842    -104.3738    1.9082453    8.4007263    8.8178593    610.76011
   99400    366.49114       0.0497   0.15762549    7.8412177   -104.88314    2.6054984    8.3237994    8.8182794     605.1961
   99500    331.58796      0.04975   -1.1467826     7.273132   -104.68092     2.357361     8.367776    8.8186995    608.42248
   99600    348.67123       0.0498    1.1175493    7.3564511    -104.8512    2.4788112    8.3943007    8.8191195    610.38016
   99700    262.75142      0.04985  -0.14319717    7.6682738   -104.72121    1.8679808    8.3111886    8.8195396    604.36556
   99800    234.04178       0.0499  -0.67598239    7.8136442   -104.66538    1.6638751    8.3471592    8.8199596    607.01015
   99900    321.85847      0.04995    1.0604128    7.7984791   -104.92354     2.288191    8.3734146    8.8203797    608.94846
  100000    301.85867         0.05  -0.71731821    6.1754231   -104.38458    2.1460062    8.3029167    8.8207997    603.85032
  100100    337.42285      0.05005  -0.41733171    6.7099971   -104.51769    2.3988429     8.401074    8.8212198    611.01815
  100200    340.67492       0.0501    1.4545931    7.6094475   -104.65231    2.4219629    8.3229098    8.8216399    605.36202
  100300    280.88918      0.05015   -1.5070537    6.2519684    -104.5285    1.9969277    8.2489228    8.8220599    600.00919
  100400    233.53441       0.0502   0.41374648    6.7862149   -104.23264     1.660268    8.3598202      8.82248    608.10458
  100500    299.89819      0.05025   0.17287266    7.5687298   -104.37083    2.1320686    8.3293384       8.8229    605.91615
  100600    334.91958       0.0503  -0.16639054     7.190665   -104.32824    2.3810464    8.4088403    8.8233201    611.72862
  100700    320.68609      0.05035   0.76616465    7.1325857   -104.17239    2.2798562    8.3933087    8.8237401    610.62779
  100800     313.6115       0.0504  -0.68787559    7.0337607    -104.5612    2.2295607    8.2685358    8.8241602    601.57899
  100900     290.7452      0.05045  -0.28500863    6.7919584   -104.77948    2.0669972    8.3917171    8.8245803    610.57013
  101000    259.77154       0.0505    1.2064399    7.8277918   -104.72108    1.8467959    8.3334064    8.8250003    606.35638
  101100    320.35928      0.05055   -1.3565539    6.9391996   -104.89295    2.2775328    8.2559805    8.8254204     600.7513
  101200    362.50062       0.0506   0.40796793    6.6380687   -104.54613    2.5771286     8.490409    8.8258404    617.83904
  101300    325.10445      0.05065    1.2971301    6.6272435   -104.34426    2.3112677    8.2954235    8.8262605    603.67885
  101400    293.00151       0.0507   -2.1690665    7.2280084   -104.39116     2.083038    8.2746418    8.8266806    602.19518
  101500    304.23323      0.05075    1.2528917    7.9673484   -104.74187    2.1628878     8.440645    8.8271006    614.30545
  101600    258.66209       0.0508   0.70223719    7.6037044    -104.8036    1.8389085     8.238345    8.8275207    599.61071
  101700    255.12669      0.05085   -1.9427676    7.4744403    -104.6682    1.8137742    8.3190672    8.8279407    605.51472
  101800    258.56495       0.0509    1.3855017    6.9433388   -104.48315    1.8382179    8.4312084    8.8283608    613.70626
  101900    335.74622      0.05095  -0.40941981    6.9572571   -104.65359    2.3869233     8.300282    8.8287808     604.2049
  102000    312.72835        0.051  -0.23319492    7.6098176   -104.44981    2.2232822    8.3083594    8.8292009    604.82166
  102100    300.67902      0.05105  0.095023642    8.0146701   -104.50001    2.1376198    8.3754179     8.829621     609.7323
  102200    241.03775       0.0511   0.68885487    7.7023369   -104.41568    1.7136116    8.2679603     8.830041      601.938
  102300    274.04524      0.05115   -1.0768068    7.9165815   -105.01895     1.948272    8.3646401    8.8304611    609.00562
  102400    309.73503       0.0512    1.1383837    7.9921126   -105.19212    2.2020017     8.338363    8.8308811    607.12134
  102500    345.62916      0.05125   -1.0210348    7.2470805   -104.91227    2.4571842    8.2887545    8.8313012    603.53802
  102600    342.66824       0.0513   0.34556832    7.8208582   -104.70356    2.4361341    8.3678872    8.8317213    609.32897
  102700    308.21183      0.05135    0.4921261    7.5460394    -104.4557    2.1911728    8.3330696    8.8321413     606.8225
  102800     315.8596       0.0514  -0.67460841    7.9009465   -104.53305    2.2455432    8.3038093    8.8325614     604.7205
  102900    272.84408      0.05145 -0.026029181    7.7583704   -104.67579    1.9397326    8.3814786    8.8329814    610.40575
  103000    282.85183       0.0515    1.1147587     8.243187   -105.08502    2.0108807    8.3245057    8.8334015    606.28536
  103100    266.02875      0.05155   -1.4979542    7.7799065    -104.7998    1.8912803    8.2921886    8.8338215    603.96038
  103200    314.21123       0.0516    1.0468835    7.8798654   -104.64919    2.2338244    8.3810574    8.8342416    610.46216
  103300    353.31228      0.05165  -0.48026818    6.8824412   -104.84007    2.5118058    8.3365502    8.8346617     607.2492
  103400    320.66097       0.0517   0.48971629    6.8238749   -104.74652    2.2796776    8.3802267    8.8350817     610.4597
  103500    293.62405      0.05175  -0.25476243    7.4557342   -104.76119    2.0874638    8.2990075    8.8355018    604.57201
  103600     282.4369       0.0518  -0.26370274    7.5413594   -104.77747    2.0079309      8.35776    8.8359218      608.881
  103700    348.79616      0.05185   0.42673209    7.2286527   -104.83592    2.4796993    8.3579094    8.8363419    608.92083
  103800    308.41272       0.0519 -0.051942724    7.1178094   -104.21288     2.192601    8.3123056    8.8367619    605.62713
  103900    334.95454      0.05195  -0.86310954    7.1403552   -104.52999     2.381295    8.3292755     8.837182    606.89238
  104000    271.99305        0.052    1.0774609    6.7937556   -104.57425    1.9336824    8.3529614    8.8376021    608.64712
  104100    295.80538      0.05205  -0.29701077    7.4276901   -104.86019    2.1029715    8.2593798    8.8380221    601.85682
  104200    253.68508       0.0521  -0.52006132    7.6687864   -104.51099    1.8035254    8.3911381    8.8384422    611.48703
  104300    270.32156      0.05215   0.86055034    8.0570763   -104.41286    1.9217992    8.3343315    8.8388622    607.37624
  104400    298.88527       0.0522  -0.58372433    7.2869874   -104.36505    2.1248674    8.3090949    8.8392823    605.56586
  104500    283.63355      0.05225   0.27642185    7.5737405   -104.19389    2.0164383    8.3774414    8.8397024    610.57596
  104600    305.99795       0.0523   0.39356467    8.0953345   -104.49161    2.1754337    8.3235869    8.8401224    606.67969
  104700    255.28316      0.05235  -0.88907385    6.8709893   -104.62629    1.8148866    8.3055546    8.8405425    605.39414
  104800    258.41593       0.0524   0.48944191     7.679135   -104.70428    1.8371584     8.359056    8.8409625    609.32282
  104900    332.24992      0.05245   0.13679301    7.1481769   -104.76105     2.362067    8.3118766    8.8413826    605.91253
  105000    273.30199       0.0525  -0.40091595    7.7175684   -104.21759     1.942988     8.354162    8.8418026    609.02395
  105100    280.93049      0.05255   0.70785696      7.23251   -104.18386    1.9972214    8.3374203    8.8422227    607.83234
  105200    353.40828       0.0526  -0.51705525    7.0869912   -104.62263    2.5124883    8.2998165    8.8426428    605.11961
  105300    273.94369      0.05265   -0.2997016    8.0116646   -104.59655    1.9475501    8.3098622    8.8430628     605.8808
  105400    280.51411       0.0527   0.49704098    7.8066477   -104.91375    1.9942612    8.3633634    8.8434829    609.81059
  105500    278.34138      0.05275   -0.2785266    7.8256301    -104.7105    1.9788146     8.314152    8.8439029    606.25117
  105600    280.24038       0.0528  -0.09197583    7.4387559   -104.40629    1.9923152    8.3529622     8.844323    609.11006
  105700    348.03426      0.05285   0.96389303    7.7432621    -104.7404    2.4742827    8.3795116    8.8447431     611.0751
  105800    314.11632       0.0529   -1.1282777    7.3315938   -104.56028    2.2331496    8.2631298    8.8451631    602.61659
  105900    287.63372      0.05295   0.14019084    7.1876345   -104.40595    2.0448767    8.3753566    8.8455832    610.83011
  106000    355.01968        0.053   0.63174992     7.305219    -104.5103    2.5239443    8.3875603    8.8460032     611.7492
  106100    283.50385      0.05305 -0.031084578    7.0788234   -103.80797    2.0155162    8.2274896    8.8464233    600.10289
  106200    245.82236       0.0531    -1.227828    7.6275796   -103.93787    1.7476269     8.385783    8.8468433    611.67765
  106300     304.9143      0.05315    1.7193236     7.709804   -104.69333    2.1677297    8.3935842    8.8472634    612.27576
  106400    259.57999       0.0532  -0.49086092     7.773653   -104.71353    1.8454341    8.1926025    8.8476835    597.64339
  106500    238.11006      0.05325   -1.4799464    7.4757026   -104.45224    1.6927978    8.3688713    8.8481035    610.53104
  106600    306.91788       0.0533    1.8660639    7.2737726   -104.69755    2.1819737     8.389603    8.8485236    612.07252
  106700    309.98548      0.05335  -0.53442004    7.3613262   -104.63522    2.2037822    8.2677276    8.8489436     603.2096
  106800    281.06185       0.0534  -0.69332978    7.3539002   -104.29486    1.9981552    8.3212881    8.8493637    607.14618
  106900    323.04754      0.05345   0.57467608    7.2212841    -104.2423    2.2966445    8.3639167    8.8497837    610.28545
  107000    348.41004       0.0535   0.19750304    8.0062257   -104.28793    2.4769543    8.2783344    8.8502038    604.06948
  107100    308.87648      0.05355  -0.49218012    7.9805352   -104.66407     2.195898    8.3221175    8.8506239    607.29315
  107200    307.87258       0.0536    0.2755571    7.4821645   -104.77266     2.188761     8.380591    8.8510439    611.58919
  107300    252.53283      0.05365 -0.092786128    8.1741031   -104.16918    1.7953337    8.3402051     8.851464    608.67084
  107400    317.68268       0.0537   0.17334978    7.7281423   -104.31855     2.258504    8.3242397     8.851884    607.53451
  107500     264.1528      0.05375   -0.1868822    7.7088726   -104.06844    1.8779436    8.3491362    8.8523041    609.38047
  107600    286.95253       0.0538   0.35124511    7.4608498   -104.46377    2.0400339    8.3381068    8.8527242    608.60434
  107700     237.9571      0.05385  -0.10685094    7.2408828    -104.7535    1.6917103    8.3244108    8.8531442    607.63349
  107800    292.09755       0.0539  -0.30454856      7.65139   -105.09968    2.0766114    8.3287511    8.8535643    607.97915
  107900    280.39148      0.05395    0.2459717    7.4277177   -104.65359    1.9933894    8.3439839    8.8539843    609.12001
  108000    260.03629        0.054  -0.15215577    8.2459865   -104.27247    1.8486781    8.2903594    8.8544044    605.23408
  108100    311.82518      0.05405  -0.23963006    7.8235288    -104.4618    2.2168612    8.3360596    8.8548244    608.59927
  108200    308.46778       0.0541   0.55773677     6.847012   -104.43018    2.1929925    8.3952399    8.8552445    612.94898
  108300    291.29952      0.05415   -0.1755655    6.9024368   -104.32016     2.070938    8.2734425    8.8556646    604.08503
  108400    282.59744       0.0542  -0.46682264     7.060524   -104.28356    2.0090722    8.3779179    8.8560846    611.74231
  108500     331.1713      0.05425    0.9215817    7.2474775   -104.55985    2.3543988    8.3860652    8.8565047    612.36625
  108600    260.10771       0.0543  -0.40956148    7.4013871    -104.3942    1.8491858    8.2716089    8.8569247    604.03709
  108700    231.18014      0.05435    -0.216655    7.8617666    -104.4075    1.6435308    8.3523248    8.8573448    609.96032
  108800    265.29071       0.0544   0.44921893     7.642682   -104.30542    1.8860334     8.299001    8.8577649    606.09489
  108900    305.01608      0.05445  -0.72916939    7.1754539   -104.12115    2.1684533    8.3589957    8.8581849    610.50539
  109000    321.73311       0.0545   0.61018563    7.6293292   -104.36788    2.2872997    8.3651952     8.858605    610.98714
  109100    326.40997      0.05455  -0.35843877    7.3330464   -104.65204     2.320549    8.3587883     8.859025    610.54814
  109200    304.30675       0.0546   0.49154801    8.1182548   -104.62775    2.1634104    8.3675422    8.8594451    611.21653
  109300    296.81891      0.05465  -0.42650368    7.6177324   -104.72765     2.110177    8.2931527    8.8598651    605.81139
  109400    243.12348       0.0547  -0.13316868     8.074292    -104.5472    1.7284397    8.3685013    8.8602852    611.34455
  109500    245.15752      0.05475   0.82730357    8.2538037   -104.38783    1.7429003    8.3253692    8.8607053    608.22246
  109600    301.99225       0.0548  -0.91319532    7.8421393   -104.30034    2.1469559    8.2700871    8.8611253    604.21238
  109700    328.60771      0.05485  0.071380672    7.5518033   -104.28439    2.3361734    8.4187886    8.8615454    615.10567
  109800    328.07316       0.0549    1.2600915    6.5117896   -104.18353    2.3323731     8.306248    8.8619654    606.91183
  109900    307.21497      0.05495    -1.914147    6.9808572    -104.5215    2.1840858    8.3271104    8.8623855    608.46502
  110000    282.46574        0.055     1.652747    8.6455037   -104.75582    2.0081359    8.3893836    8.8628055     613.0444
  110100    260.02432      0.05505  -0.81602098    7.9525979   -104.44773     1.848593    8.2457767    8.8632256    602.57906
  110200    308.10458       0.0551  -0.45350079     7.500611   -104.35126    2.1904104    8.3715439    8.8636457    611.79878
  110300    305.23142      0.05515    1.0922973    7.1647109   -104.13573    2.1699842     8.361494    8.8640657    611.09329
  110400    329.05733       0.0552  -0.58852989    7.1103281   -104.29758    2.3393699    8.2933322    8.8644858    606.14045
  110500    294.95446      0.05525  0.091886544    7.6111419   -104.46138    2.0969221    8.3613377    8.8649058    611.13978
  110600    246.95769       0.0553  0.058152504    8.1547947   -104.67136    1.7556982    8.3469906    8.8653259    610.12004
  110700      248.941      0.05535   0.10925273    8.1618139   -104.56025    1.7697982    8.3292848     8.865746    608.85469
  110800    273.66062       0.0554  -0.12982167    7.2988256   -104.29341    1.9455376    8.2707248     8.866166    604.60271
  110900    292.55206      0.05545  -0.28080612    7.0242992   -104.12724    2.0798427    8.3529606    8.8665861     610.6432
  111000    325.88939       0.0555   0.51924732    6.6765948   -104.38633    2.3168481    8.3479907    8.8670061    610.30879
  111100    275.66211      0.05555  -0.32893587     7.424581   -104.39062    1.9597669    8.2731144    8.8674262    604.86335
  111200    251.31684       0.0556 -0.0082640346    7.3583828   -104.54098    1.7866888    8.3656055    8.8678462    611.65453
  111300     285.6351      0.05565    0.3717756    8.1849302   -104.78507    2.0306679    8.3666323    8.8682663    611.75858
  111400    293.72768       0.0557 -0.060143309    8.1296059   -104.38733    2.0882005    8.2613163    8.8686864     604.0866
  111500    292.12082      0.05575  -0.74347097    7.3624116   -104.01015    2.0767769    8.3907531    8.8691064    613.58039
  111600    300.74788       0.0558     1.534217    7.4585335   -103.94528    2.1381093    8.3256011    8.8695265    608.84493
  111700    309.45135      0.05585   -2.1095653    7.5990839   -104.13126    2.1999849    8.2962415    8.8699465    606.72662
  111800    268.73875       0.0559    1.6992994    8.5624605   -104.36006    1.9105465    8.4406544    8.8703666    617.31716
  111900    284.88896      0.05595  -0.25478118    7.5142835   -104.47874    2.0253634    8.2868922    8.8707867    606.10028
  112000     307.0998        0.056   -1.0453775    7.3029082   -104.47606    2.1832671    8.3439525    8.8712067    610.30255
  112100    342.54529      0.05605    1.2157039     7.278127   -104.36524      2.43526    8.3867876    8.8716268    613.46469
  112200    356.87289       0.0561  -0.21140118    7.8040418   -104.08619    2.5371193    8.2715643    8.8720468    605.06514
  112300     369.7071      0.05615   -1.3164696    6.9801487   -103.98047    2.6283616    8.3719565    8.8724669    612.43783
  112400    273.34697       0.0562    1.8674505    6.7504253   -103.87305    1.9433078    8.3904315    8.8728869     613.8184
  112500    321.63151      0.05625   -1.0723159     7.003655   -104.39342    2.2865775    8.2715371     8.873307     605.1491
  112600    284.11613       0.0563   0.17576229    7.6467428   -104.46768    2.0198691     8.358856    8.8737271    611.56633
  112700    287.75283      0.05635   0.29525202    8.2617784   -104.66145    2.0457235    8.3465717    8.8741471    610.69647
  112800    282.61075       0.0564  -0.42864819    7.9045038   -104.39499    2.0091668    8.2838411    8.8745672    606.13533
  112900    337.97796      0.05645  -0.17556756    7.4534022   -104.20399    2.4027894    8.4106677    8.8749872    615.44446
  113000    341.22465       0.0565    1.2083852    8.0291691   -104.32485    2.4258711    8.3610491    8.8754073    611.84262
  113100    300.21274      0.05655  -0.92156451    7.0661553   -104.38226    2.1343048    8.2780354    8.8758273    605.79653
  113200    268.84187       0.0566  -0.30974494     7.617645    -104.3621    1.9112797    8.4077852    8.8762474     615.3209
  113300    292.62029      0.05665    1.1312458    8.0867373   -104.52749    2.0803278    8.3579187    8.8766675    611.70039
  113400    281.66209       0.0567   -1.2002537    7.8476637   -104.20931    2.0024225     8.299914    8.8770875    607.48388
  113500    290.30511      0.05675  0.090318972    7.6498756   -103.80326    2.0638684    8.3867954    8.8775076    613.87191
  113600    309.19938       0.0568    1.1387859    7.0700036   -103.78539    2.1981936    8.3818956    8.8779276    613.54229
  113700    288.05768      0.05685  -0.62201179    6.9623894    -104.1089    2.0478908    8.2652414    8.8783477    605.03201
  113800    314.16869       0.0569  -0.36632453     7.758847   -104.67999     2.233522    8.3521603    8.8787678    611.42357
  113900     299.9354      0.05695   0.60339326    7.9942379   -104.60957    2.1323331    8.2849455    8.8791878    606.53178
  114000    298.26901        0.057  -0.68837113    7.5805128   -104.41018    2.1204863    8.2939063    8.8796079    607.21651
  114100    329.57357      0.05705   0.41151693    7.6565231    -104.1825      2.34304    8.3904645    8.8800279    614.31483
  114200    378.81515       0.0571   0.46756495    8.0902275   -104.24906    2.6931136    8.3122346     8.880448    608.61594
  114300    290.16047      0.05715  -0.91991575     7.754752   -103.94282    2.0628401    8.3062465     8.880868    608.20627
  114400    331.53287       0.0572   0.38105568    7.5596617   -104.34755    2.3569693    8.3873725    8.8812881    614.17559
  114500    318.54608      0.05725    0.5226334    8.2856082   -104.46483    2.2646422    8.2786796    8.8817082    606.24509
  114600    281.31286       0.0573   -1.0749074    8.0420169   -104.54037    1.9999398    8.3857823    8.8821282    614.11723
  114700    258.70601      0.05735    1.3425812    8.5413318   -104.36073    1.8392207    8.3491615    8.8825483    611.46429
  114800    301.18739       0.0574   -1.0939449    8.2389909   -103.98176    2.1412339    8.2573428    8.8829683     604.7684
  114900     293.6349      0.05745 -0.057647975    7.5356331   -103.88117     2.087541    8.3804134    8.8833884    613.81112
  115000     296.5335       0.0575    1.2440137    7.7864943   -104.15344     2.108148    8.4095561    8.8838085    615.97476
  115100    301.43019      0.05755  -0.73705024    6.7271835   -104.18235    2.1429601    8.2402247    8.8842285    603.60028
  115200    314.90039       0.0576  -0.86885794    7.0435814   -104.39458    2.2387238    8.3532237    8.8846486    611.90645
  115300    234.06256      0.05765    1.6133807    8.4116582   -104.34336    1.6640228    8.3248814    8.8850686    609.85909
  115400    251.74576       0.0577   -1.3660034    7.9388588   -104.36032    1.7897381    8.2775563    8.8854887    606.42085
  115500    338.55413      0.05775   0.39836487    8.6738592   -104.55683    2.4068856    8.4220702    8.8859087    617.03723
  115600    360.44229       0.0578   0.72963552    8.0765088   -104.57729    2.5624953    8.3223818    8.8863288    609.76245
  115700    308.82016      0.05785   -1.1308994    8.5221475   -104.14658    2.1954977    8.3184077    8.8867489    609.50008
  115800    382.32597       0.0579   0.38140688    7.8277885   -103.92313    2.7180731    8.4466355    8.8871689    618.92475
  115900    400.11845      0.05795   0.96502332    7.6851803   -104.03638    2.8445653    8.3171242     8.887589    609.46365
  116000    299.03605        0.058  -0.95705709    8.0833016    -103.9503    2.1259394    8.2354042     8.888009    603.50388
  116100    285.45809      0.05805  -0.49918331    7.8220155   -104.10915    2.0294095    8.4504671    8.8884291     619.2933
  116200    302.49646       0.0581     1.907171    8.4164758   -104.47164    2.1505405    8.2906057    8.8888492    607.60657
  116300    275.98433      0.05815   -2.0513301    7.7827924   -104.45482    1.9620576    8.2772116    8.8892692    606.65359
  116400    225.01614       0.0582   0.76945397    7.6230662   -104.24364    1.5997091    8.3902965    8.8896893    614.97088
  116500     294.5208      0.05825   0.57395063    8.4568795   -104.44684    2.0938391     8.262666    8.8901093    605.64475
  116600    291.17363       0.0583   -1.3442447    8.3595647   -104.04497     2.070043    8.3871318    8.8905294    614.79701
  116700    298.03212      0.05835    1.8438879     8.605114   -104.02389    2.1188021     8.320977    8.8909494    609.97652
  116800    319.63622       0.0584   -1.3111068    8.7009117   -104.08149    2.2723923    8.2693708    8.8913695    606.22213
  116900    242.19707      0.05845    -0.117599    7.7926201   -104.10815    1.7218535     8.409234    8.8917896    616.50453
  117000    286.59339       0.0585    1.6510182    8.0684492     -104.652    2.0374807    8.2678131    8.8922096     606.1652
  117100    332.67961      0.05855   -2.4613594    7.4257963   -104.70922    2.3651218    8.2821322    8.8926297    607.24371
  117200    301.20613       0.0586    1.7683601    8.3271542   -104.07316    2.1413671    8.3650108    8.8930497    613.34932
  117300    328.58928      0.05865  -0.27864554     6.975645   -104.13703    2.3360424    8.2509325    8.8934698    605.01331
  117400    315.35705       0.0587   -1.0590091    7.0293797   -104.17744    2.2419704    8.3362112    8.8938898    611.29538
  117500      312.981      0.05875    1.3084423     7.505418   -104.29758    2.2250784    8.3291979    8.8943099    610.80994
  117600    297.03885       0.0588  -0.80120708    7.2679074   -104.30703    2.1117407    8.2965732      8.89473    608.44619
  117700    249.33576      0.05885   0.21772529    8.0974662   -104.20458    1.7726047    8.3334806      8.89515    611.18174
  117800    248.77719       0.0589   0.53168938    8.4218694   -104.64622    1.7686337    8.2925732    8.8955701    608.21028
  117900    267.75131      0.05895  -0.98704807    7.8437197   -104.72553    1.9035265    8.3121849    8.8959901    609.67747
  118000    254.48303        0.059   0.59553134    8.2818444   -104.10091    1.8091983    8.3613117    8.8964102    613.30976
  118100    288.64691      0.05905  0.034592212     7.901033   -104.11686    2.0520798    8.2995432    8.8968303    608.80772
  118200    292.86543       0.0591  -0.79148076    8.6124767   -104.07124    2.0820706    8.3229901    8.8972503    610.55648
  118300     282.4175      0.05915    1.1830428    8.6709131   -104.06705     2.007793     8.379111    8.8976704    614.70241
  118400     291.2256       0.0592  -0.29939181     7.806416   -104.49139    2.0704125    8.2798323    8.8980904    607.44787
  118500    269.04087      0.05925   -0.3395385    8.3201996   -104.64621    1.9126944    8.3491935    8.8985105    612.56545
  118600    259.58378       0.0593   0.22815552     8.364422   -104.41016     1.845461     8.312442    8.8989305    609.89786
  118700    342.25708      0.05935  -0.24371903    7.7003911    -104.4482     2.433211    8.3033309    8.8993506    609.25811
  118800    283.58416       0.0594  0.080758846    8.6714298   -104.00484    2.0160871      8.31187    8.8997707    609.91346
  118900    298.04468      0.05945   0.19364212    7.8816814   -104.13606    2.1188914    8.3520612    8.9001907    612.89156
  119000     273.3133       0.0595  0.031291438     7.996562   -104.23496    1.9430684    8.2877439    8.9006108    608.20053
  119100    283.08556      0.05955  -0.27170133    8.5281461   -104.64016    2.0125425    8.3156737    8.9010308    610.27897
  119200    216.94345       0.0596   0.31639437     8.303098   -104.39287    1.5423178    8.3275809    8.9014509    611.18167
  119300    314.10202      0.05965  0.025537469    8.8034246   -104.57234     2.233048    8.2663552     8.901871     606.7168
  119400    309.35441       0.0597   -1.0324684    8.1392519   -104.27837    2.1992957    8.3877711     8.902291    615.65727
  119500      304.534      0.05975    1.9766334     8.343998   -104.18767     2.165026    8.3596871    8.9027111    613.62488
  119600    316.69017       0.0598   -1.8276914     7.624498   -104.17284    2.2514479    8.2490038    8.9031311    605.52898
  119700    263.20266      0.05985   0.58635875    8.5246705   -104.00841    1.8711888    8.4352332    8.9035512    619.22861
  119800    357.43018       0.0599    1.0364011    8.2287896   -104.89802    2.5410812    8.2661533    8.9039712    606.84512
  119900    267.46173      0.05995   -2.0699141    8.2261091   -104.56647    1.9014678    8.2825782    8.9043913    608.07961
  120000    255.09465         0.06    1.7288269    9.1930226    -104.3078    1.8135464    8.3862371    8.9048114    615.71895
  120100    332.78089      0.06005  -0.49923266    9.2463076   -104.23001    2.3658419    8.2668871    8.9052314    606.98488
  120200    302.38808       0.0601  -0.47751911    8.2983576   -104.03688      2.14977    8.3076172    8.9056515    610.00421
  120300    291.55729      0.06015   0.64455814    8.3835923   -104.14631    2.0727706    8.3332688    8.9060715     611.9166
  120400    283.11213       0.0602  -0.47043836    7.5501666   -104.30609    2.0127313     8.305394    8.9064916    609.89849
  120500    279.89661      0.06025    0.2921518    8.2928675   -104.75101    1.9898712    8.3257765    8.9069116     611.4241
  120600    266.33624       0.0603  -0.12233986    8.7238614    -104.7529    1.8934664    8.2869417    8.9073317    608.60087
  120700    299.67696      0.06035   0.13780043    8.7737305   -104.50282    2.1304958    8.3420738    8.9077518    612.67872
  120800    343.77996       0.0604   0.06755532    8.1318548   -104.54506    2.4440376    8.2761992    8.9081718    607.86926
  120900     304.6766      0.06045  -0.55739433    7.6169308   -104.18988    2.1660398    8.3278626    8.9085919    611.69266
  121000    329.11227       0.0605    1.0161331    8.8974604   -104.27604    2.3397605    8.3232589    8.9090119    611.38335
  121100    259.75837      0.06055  -0.91125487    8.1938778   -104.03098    1.8467023    8.3014438     8.909432    609.80967
  121200    245.94996       0.0606   0.54019426    8.8380219   -104.21039     1.748534    8.3407028    8.9098521    612.72246
  121300    325.98493      0.06065  0.093014813    8.5288072   -104.63403    2.3175273    8.2837173    8.9102721    608.56489
  121400    303.47491       0.0607  -0.64487458    7.2377194   -104.01277    2.1574966    8.3153208    8.9106922    610.91545
  121500    320.32285      0.06075   0.52066314    8.1898328   -103.84707    2.2772738    8.3639062    8.9111122    614.51393
  121600    345.84472       0.0608 0.0031970182    6.8535214   -104.17237    2.4587166    8.3169477    8.9115323    611.09259
  121700    265.53557      0.06085   0.16154308    8.1935608   -104.27333    1.8877742    8.2965001    8.9119523    609.61892
  121800    302.14707       0.0609  -0.64498562    8.6550378    -104.5915    2.1480566    8.3039938    8.9123724    610.19831
  121900    278.34409      0.06095   0.41952551    8.9008256   -104.35643    1.9788339    8.3165875    8.9127925    611.15253
  122000    272.27336        0.061   0.27635792    8.0242782   -104.03466    1.9356752    8.2873683    8.9132125    609.03403
  122100    305.47566      0.06105   -1.2327144    7.5437265   -103.70467    2.1717205    8.3443306    8.9136326    613.24906
  122200    353.88546       0.0611    1.7985327    8.2832225   -104.05494    2.5158807    8.3695714    8.9140526    615.13307
  122300    312.92012      0.06115   -1.2776641    7.7533227   -104.23571    2.2246455    8.2721881    8.9144727     608.0044
  122400    282.07257       0.0612   0.31592555    8.2033217   -104.19162    2.0053407    8.3455051    8.9148928    613.42208
  122500    281.60736      0.06125   0.33998622    8.7461633   -104.18613    2.0020334    8.3191848    8.9153128    611.51627
  122600    306.06439       0.0613  -0.77944837    8.1043803   -104.35306     2.175906     8.322199    8.9157329    611.76666
  122700    255.94246      0.06135   0.95270487    8.3649381   -104.19907    1.8195738    8.4045608    8.9161529     617.8502
  122800    318.44493       0.0614 -0.083938697    8.2313768   -104.37563    2.2639231    8.2547264     8.916573    606.86392
  122900    352.99584      0.06145   -1.1405774    8.4840581   -104.30117    2.5095561    8.3350289     8.916993    612.79639
  123000    273.94125       0.0615    1.6230927    9.2099082   -103.84924    1.9475327    8.3642714    8.9174131    614.97528
  123100    273.69948      0.06155   -1.2315461    8.2697651   -104.21973    1.9458139    8.2412503    8.9178332    605.95881
  123200    242.39944       0.0616 -0.040486805    8.1867549   -104.31876    1.7232923    8.3890406    8.9182532    616.85453
  123300    286.16386      0.06165    1.5309079     8.511746   -104.49176     2.034427    8.2969651    8.9186733    610.11286
  123400    310.38421       0.0617   -2.0112012    8.3400763   -103.98048     2.206617    8.2476829    8.9190933    606.51749
  123500    333.53282      0.06175   0.91290529    7.3951559   -103.75841    2.3711876    8.4537183    8.9195134    621.69818
  123600    375.96233       0.0618   0.76744627    7.2077676   -104.07668     2.672832    8.2878786    8.9199334     609.5308
  123700    327.54721      0.06185   -1.2996012    8.0908988   -104.23522     2.328634    8.2714653    8.9203535    608.35234
  123800    284.92101       0.0619   0.46767537    8.4924463   -104.21221    2.0255912    8.3665402    8.9207736    615.37391
  123900    232.40989      0.06195   0.96417685    8.3045108   -103.86782    1.6522735    8.2805662    8.9211936    609.07905
  124000    294.99841        0.062    -2.163444    7.2861984   -104.00831    2.0972346    8.2890325    8.9216137    609.73049
  124100    351.04675      0.06205    1.6216458    7.8852756   -103.91415    2.4956994    8.4077625    8.9220337    618.49324
  124200    393.00939       0.0621   0.27690481    7.9576956   -103.96834    2.7940248    8.3124541    8.9224538    611.51094
  124300    357.47796      0.06215   -1.2542049    7.2708472   -104.29749    2.5414209    8.3220558    8.9228739    612.24611
  124400    312.15036       0.0622    1.2006597    8.1793758   -104.37462    2.2191731    8.3277533    8.9232939    612.69411
  124500    263.63431      0.06225   -1.2909799    7.7817053   -104.15324    1.8742575    8.3506402     8.923714    614.40688
  124600     269.5516       0.0623   0.98770597    8.5415461   -104.11872    1.9163254    8.3716981     8.924134    615.98524
  124700    314.03144      0.06235   0.06376075     7.982892   -104.02212    2.2325462    8.2535816    8.9245541    607.32287
  124800    302.99569       0.0624   -1.1018038    7.8705049   -103.74171    2.1540897    8.3487697    8.9249741    614.35601
  124900    319.26364      0.06245    1.5250078    8.4067769   -103.99657    2.2697435    8.3439034    8.9253942    614.02681
  125000    325.48441       0.0625   -1.0746699     8.673631   -104.65687    2.3139689    8.2731739    8.9258143    608.85049
  125100     271.9368      0.06255   0.15379544    9.3953176    -104.5511    1.9332824    8.3548796    8.9262343    614.89242
  125200    235.61966       0.0626   0.51815126     8.646138   -104.11072    1.6750928     8.302236    8.9266544    611.04677
  125300    330.18838      0.06265  -0.68497074    7.8754192   -104.31298    2.3474109    8.3090056    8.9270744     611.5738
  125400    318.99145       0.0627    0.4017196    7.2197921   -104.14322    2.2678085    8.3517337    8.9274945    614.74767
  125500    342.34277      0.06275   0.39495523    7.4123383   -104.34301    2.4338202    8.3079109    8.9279146    611.55077
  125600    255.39133       0.0628  -0.81312961    8.4053628   -104.03607    1.8156556     8.299662    8.9283346    610.97231
  125700    284.96073      0.06285   0.31276877    8.6704954   -104.60475    2.0258736    8.3646662    8.9287547     615.7865
  125800    245.90786       0.0629   0.63606318    8.5543443   -104.56536    1.7482347    8.2940573    8.9291747    610.61717
  125900    267.85049      0.06295   -1.0244115    8.6332823   -104.18445    1.9042317    8.2613748    8.9295948    608.23966
  126000     275.3918        0.063   0.40909001    7.9689312   -103.89961    1.9578451    8.3730562    8.9300148    616.49115
  126100      296.193      0.06305   0.36827379    8.0309662   -103.91994    2.1057272     8.255775    8.9304349    607.88457
  126200    327.23782       0.0631  -0.82059744     8.758307   -104.09572    2.3264344    8.3364107     8.930855    613.85076
  126300    288.13076      0.06315   0.85934652    8.2937605   -104.08891    2.0484103    8.3423207     8.931275    614.31483
  126400    262.26953       0.0632 -0.033543886    8.0692701   -104.15379    1.8645549    8.2575473    8.9316951    608.10086
  126500    260.94997      0.06325  -0.96445602    8.7072487   -104.25161    1.8551737    8.3342977    8.9321151    613.78177
  126600    296.29996       0.0633    1.1853202     8.474255   -104.06237    2.1064877    8.3567611    8.9325352    615.46503
  126700      336.824      0.06335  -0.80134242    8.0321298    -103.9931    2.3945856     8.257449    8.9329552    608.17942
  126800    293.44846       0.0634   0.21567846    7.5847526   -103.82926    2.0862155    8.3626858    8.9333753     615.9593
  126900    355.76283      0.06345   0.41311691    7.6422521   -104.42754    2.5292275    8.2745844    8.9337954    609.49879
  127000    259.23409       0.0635  -0.47410456    8.8337742   -104.30413     1.842975    8.2873648    8.9342154    610.46889
  127100    279.90028      0.06355    0.3956893     9.069809   -104.46166    1.9898973    8.2964189    8.9346355    611.16457
  127200     270.0288       0.0636  -0.39001291    7.5047099   -104.05827    1.9197179    8.2429676    8.9350555    607.25557
  127300    306.70321      0.06365  -0.37886047    8.5285889   -104.07526    2.1804476    8.3512158    8.9354756    615.25909
  127400    316.59013       0.0637    1.2355542    8.5587972   -104.10144    2.2507367    8.3273999    8.9358957    613.53334
  127500    300.63186      0.06375   -1.1471071    7.7256348   -104.10385    2.1372845    8.2551207    8.9363157    608.23666
  127600     271.9937       0.0638    0.4215691    8.7289186    -104.2448    1.9336869    8.3718158    8.9367358    616.86374
  127700    247.08948      0.06385     0.654837    8.7647792   -104.42504    1.7566352    8.2764986    8.9371558    609.86911
  127800    248.99698       0.0639   -1.2745792    8.4964049   -104.51452    1.7701962    8.2659512    8.9375759    609.12053
  127900    273.24073      0.06395   0.66506219    8.8681092   -104.08033    1.9425525     8.400376    8.9379959    619.05543
  128000    310.14144        0.064   0.55171449    8.5328801    -103.9959     2.204891    8.2551433     8.938416    608.38128
  128100    338.15208      0.06405   -1.4010023     7.849341   -104.00803    2.4040273    8.3260137    8.9388361    613.63306
  128200    306.25759       0.0641    1.6124152    8.3098384   -104.05994    2.1772796     8.353272    8.9392561    615.67096
  128300    278.20428      0.06415   -1.1024312     8.507382   -104.17231    1.9778399    8.2447554    8.9396762    607.70138
  128400    280.69141       0.0642  -0.11236023    9.1619768   -104.19307    1.9955217    8.3760225    8.9400962    617.40578
  128500    268.83335      0.06425    1.4320609    8.6375062   -104.03179    1.9112191    8.3114908    8.9405163    612.67786
  128600    260.01993       0.0643   -1.4951592    8.5611823   -103.69849    1.8485618    8.2742962    8.9409364    609.96474
  128700    318.32597      0.06435   0.62584732    8.7389862   -103.93445    2.2630774    8.3192397    8.9413564     613.3067
  128800    313.51023       0.0644  -0.23222824    8.2061303   -103.97957    2.2288408    8.3337956    8.9417765    614.40864
  128900    293.15104      0.06445   0.25849961    7.8732498   -104.04875     2.084101    8.2969373    8.9421965       611.72
  129000    290.05456       0.0645  -0.13535446    8.8621801   -104.29726    2.0620872    8.3055603    8.9426166    612.38452
  129100    268.36137      0.06455 -0.015683039    8.7323304   -104.31373    1.9078636    8.3025288    8.9430366    612.18976
  129200    332.17229       0.0646  0.045881684    8.2255212   -104.45871    2.3615151    8.3571341    8.9434567    616.24504
  129300    367.68449      0.06465   0.05469661    8.6172278   -104.18506    2.6139823    8.3343465    8.9438768    614.59358
  129400    352.35215       0.0647   0.33961168     8.668217    -104.0549      2.50498    8.2876913    8.9442968    611.18182
  129500    314.75657      0.06475  -0.89784629    8.3648831   -104.09283    2.2377014    8.3221721    8.9447169    613.75346
  129600    329.42426       0.0648    1.0319623    8.4598415   -104.38175    2.3419785    8.3631708    8.9451369    616.80605
  129700    319.64212      0.06485  -0.48394561    8.7693492   -104.30454    2.2724342    8.1975728     8.945557    604.62114
  129800    285.77399       0.0649  -0.81841094    8.6426668   -104.02828    2.0316553      8.40236    8.9459771    619.75455
  129900    321.13758      0.06495    2.0085405    8.6989703   -104.06883    2.2830659    8.3322066    8.9463971    614.60892
  130000    352.56192        0.065   -1.9460048     8.143841   -104.20358    2.5064713    8.2379417    8.9468172    607.68419
  130100    217.38402      0.06505   0.17233571    8.1939737   -103.85773    1.5454499    8.4196799    8.9472372    621.11954
  130200    303.24835       0.0651    1.3590289    8.9897344   -104.39273    2.1558859    8.3075388    8.9476573    612.87567
  130300    266.19101      0.06515   -1.4042391     8.664573   -103.97788    1.8924339    8.2823444    8.9480773    611.04568
  130400    295.32589       0.0652   0.77261946    8.3881465   -103.75781    2.0995627    8.3905291    8.9484974    619.05626
  130500    341.12101      0.06525  -0.12730429    7.8808929   -103.61434    2.4251343    8.2916952    8.9489175    611.79298
  130600    313.97389       0.0653  -0.18162966    7.2310606   -103.63257    2.2321371    8.3410146    8.9493375    615.46085
  130700    337.81693      0.06535   0.22085171    8.5793365   -104.11291    2.4016446    8.3222771    8.9497576    614.10708
  130800    280.89672       0.0654  0.033198287    8.1777222   -103.98992    1.9969813     8.353783    8.9501776    616.46086
  130900    291.43203      0.06545 -0.062477233    8.7928834   -104.04001      2.07188    8.3185138    8.9505977    613.88701
  131000    298.64759       0.0655  0.073022803    7.8777936   -103.89655    2.1231777    8.3013214    8.9510177    612.64699
  131100    352.08206      0.06555  -0.38270252    8.4949047   -103.90799    2.5030598    8.3252289    8.9514378    614.44023
  131200    390.07775       0.0656   0.42651012    8.1535518   -103.84161    2.7731828    8.3710048    8.9518579    617.84769
  131300    364.51845      0.06565  -0.32260351    8.2691989    -103.9597    2.5914739    8.3290509    8.9522779    614.78001
  131400    331.85346       0.0657   0.50376127    9.7520767   -104.33516    2.3592485    8.3270054     8.952698    614.65786
  131500    326.43109      0.06575  -0.29013881    8.9638594   -104.41479    2.3206992    8.3389726     8.953118     615.5701
  131600    327.36545       0.0658 -0.014811274    8.6036067   -104.28688    2.3273418     8.279833    8.9535381    611.23318
  131700    326.07293      0.06585  -0.38000616    8.7214176   -103.88921    2.3181529    8.3665948    8.9539582    617.66708
  131800    317.59806       0.0659    1.1255544    8.1073762   -103.59877    2.2579024    8.3104903    8.9543782    613.55393
  131900    323.88928      0.06595   -1.1055747     6.791787   -103.66966    2.3026286    8.2614267    8.9547983    609.96023
  132000    264.01913        0.066   0.22323753    7.6004861   -103.83266    1.8769933    8.3638326    8.9552183    617.55006
  132100    255.98804      0.06605   0.49416625    8.5797167   -104.02533    1.8198978    8.3001166    8.9556384    612.87429
  132200    276.86471       0.0661  -0.30226065    8.9100816   -104.16105    1.9683165    8.2878114    8.9560584    611.99439
  132300    336.23799      0.06615  -0.27141006    8.6569115   -104.12651    2.3904194     8.265724    8.9564785    610.39202
  132400    299.94089       0.0662   0.40805855    9.0238818   -103.55278    2.1323722     8.314132    8.9568986    613.99556
  132500    302.34113      0.06625  -0.48029651    8.7873706   -103.56458    2.1494362    8.3061891    8.9573186    613.43774
  132600    317.42199       0.0663    0.5820662    8.6452915   -104.17817    2.2566507     8.326916    8.9577387    614.99733
  132700    267.08477      0.06635  -0.27588464    9.5145535   -104.17799    1.8987879    8.2478541    8.9581587    609.18666
  132800    284.58864       0.0664  -0.58943726    8.8330093   -104.20286    2.0232283    8.3646534    8.9585788    617.84243
  132900    316.01282      0.06645    1.5738856    9.4689462   -104.09294    2.2466325    8.3473434    8.9589989    616.59276
  133000    291.24941       0.0665   -1.1887542    8.2312435   -103.61757    2.0705817    8.2312817    8.9594189    608.04814
  133100    361.40954      0.06655 -0.0010438549    7.8313085   -103.58236    2.5693717    8.3661539     8.959839    618.04019
  133200    379.79653       0.0666   0.57889978    7.5653046   -103.70195    2.7000905    8.3648179     8.960259    617.97046
  133300    348.16409      0.06665  -0.24428369    8.7065338   -104.00228    2.4752058    8.2664031    8.9606791    610.72847
  133400    290.60384       0.0667  -0.10971246    9.0304503   -103.93384    2.0659922    8.3354941    8.9610991    615.86184
  133500    297.39689      0.06675   0.19995313    8.0177721   -104.17236    2.1142861     8.316826    8.9615192    614.51136
  133600    263.59266       0.0668  -0.21241605    7.9178143   -104.11333    1.8739614    8.3039487    8.9619393    613.58864
  133700    256.81036      0.06685 -0.029047998    8.8823731     -103.976    1.8257439    8.3434634    8.9623593    616.53733
  133800     311.0939       0.0669   0.64287634    8.8257934   -103.76859    2.2116624    8.3290178    8.9627794    615.49872
  133900    358.96876      0.06695  -0.96357893    8.4502926   -103.97567    2.5520195    8.3030055    8.9631994    613.60522
  134000    340.97728        0.067   0.61833793    8.9927268   -104.28813    2.4241125    8.3283876    8.9636195    615.50984
  134100    266.85507      0.06705   0.16934445    8.5743781   -104.02503    1.8971549    8.2601773    8.9640395    610.49736
  134200    286.17908       0.0671   -1.0045598    8.4328498   -104.04869    2.0345352    8.3412968    8.9644596    616.52168
  134300    323.79106      0.06715    1.2035057    8.1715852   -104.08388    2.3019304    8.3111534    8.9648797     614.3225
  134400    384.21852       0.0672  -0.97733318    9.2302708   -104.26202    2.7315278    8.3061305    8.9652997       613.98
  134500    367.46653      0.06725   0.48559412    7.5439711   -103.80539    2.6124327    8.3490291    8.9657198    617.17993
  134600    290.40655       0.0673   0.68279318    7.0913907   -103.68327    2.0645896    8.2616837    8.9661398    610.75177
  134700    311.74345      0.06735   -1.6182782    7.7657001   -104.15609    2.2162802    8.2335165    8.9665599      608.698
  134800    266.60464       0.0674    1.0457512    8.7141829   -103.98117    1.8953745    8.4358916      8.96698    623.68866
  134900    336.36881      0.06745   0.53068897    9.3294123   -104.23122    2.3913494    8.2693501       8.9674    611.40443
  135000    330.59242       0.0675   -1.4582885    8.9418912   -103.59896    2.3502833    8.2533554    8.9678201    610.25042
  135100    360.86636      0.06755    1.1531993    7.8191118   -103.41924    2.5655101    8.4058448    8.9682401    621.55456
  135200    382.92177       0.0676 -0.055489942     7.208077    -103.9028    2.7223088    8.2794228    8.9686602    612.23519
  135300    336.59638      0.06765  -0.75646569    8.1878627   -104.17142    2.3929673    8.3033027    8.9690802    614.02979
  135400    289.51365       0.0677   0.96768433    9.0227766   -104.11788    2.0582417    8.3828669    8.9695003     619.9426
  135500    276.85264      0.06775  -0.15047342    8.3462068   -103.95154    1.9682307    8.2180877    8.9699204    607.78506
  135600    324.77579       0.0678    -1.464533    8.4979328   -103.98099    2.3089311    8.3500543    8.9703404    617.57383
  135700    306.11303      0.06785     2.035756    7.9978166     -103.754    2.1762518    8.3879428    8.9707605    620.40513
  135800    287.18888       0.0679  -0.78673557    8.6324829   -103.83917    2.0417142    8.1981157    8.9711805    606.39317
  135900    246.25617      0.06795   -1.2812852    8.2578013   -104.09063    1.7507109    8.3070176    8.9716006    614.47713
  136000    268.39972        0.068    1.5422759    9.0891165   -104.14045    1.9081362    8.3842663    8.9720207    620.22032
  136100    320.08216      0.06805  0.023448051    8.6336212   -104.09942    2.2755627     8.232257    8.9724407    609.00404
  136200    301.13158       0.0681   -1.2666235     8.111113   -103.74532    2.1408372    8.3453058    8.9728608    617.39604
  136300    322.51893      0.06815    1.7990392    8.5655601   -103.83712    2.2928864    8.3123763    8.9732808    614.98867
  136400    309.67112       0.0682    -1.477552    6.8926204   -103.86447    2.2015473    8.2677438    8.9737009    611.71519
  136500     280.2337      0.06825   0.46034312    8.6275499    -103.9652    1.9922677    8.3482456    8.9741209    617.70028
  136600    221.38812       0.0683   0.43790999    9.5565997   -103.89012    1.5739163    8.2592427     8.974541    611.14341
  136700    288.10808      0.06835  -0.71535994    8.2226476   -104.10528     2.048249    8.3272594    8.9749611    616.20515
  136800     391.9538       0.0684    0.8152779    9.3265628   -104.21059    2.7865203    8.2894515    8.9753811    613.43613
  136900     333.9751      0.06845   -1.1662099    7.4476232   -103.91432    2.3743319    8.3119242    8.9758012    615.12795
  137000    353.86248       0.0685    1.0942082    8.6531938    -104.1492    2.5157173    8.3620648    8.9762212    618.86759
  137100    284.09235      0.06855  -0.17919597    8.1031089   -104.04068       2.0197    8.2420688    8.9766413    610.01535
  137200    254.56953       0.0686  -0.63090806     8.325699   -104.21013    1.8098132    8.2847075    8.9770613    613.19984
  137300    270.02361      0.06865   0.46213529    9.2161056   -104.16224     1.919681    8.3637996    8.9774814    619.08288
  137400    331.11474       0.0687   0.55274582    8.3339534    -104.1431    2.3539966    8.2348771    8.9779015    609.56864
  137500    322.14424      0.06875   -1.7534227    7.8714178   -104.09711    2.2902226    8.2820717    8.9783215     613.0908
  137600    247.82638       0.0688    1.2343636    8.5127851   -103.49594    1.7618741    8.4224143    8.9787416    623.50901
  137700    340.12503      0.06885   0.49042187    8.1717529   -103.90974    2.4180536    8.2793261    8.9791616    612.94491
  137800     285.7271       0.0689   -1.3312884    8.6689862   -103.61294    2.0313219    8.3221335    8.9795817     616.1429
  137900    274.75794      0.06895    1.4761491    8.6653246    -103.9531    1.9533388    8.3713317    8.9800018    619.81435
  138000    267.69771        0.069  -0.77669417    9.1459864   -104.19179    1.9031455    8.2210076    8.9804218    608.71282
  138100    309.47619      0.06905  -0.62777361    9.2717861   -104.22966    2.2001616    8.3428103    8.9808419    617.76042
  138200     301.9786       0.0691    1.1538884    9.8365503    -103.8872    2.1468588    8.3625264    8.9812619     619.2493
  138300    290.65735      0.06915  -0.39451689    9.0092285   -103.76785    2.0663726    8.2358456     8.981682    609.89705
  138400     280.2928       0.0692  -0.33860068    8.7920108   -103.66059    1.9926879     8.309639     8.982102    615.39052
  138500    318.46474      0.06925    0.1095276    8.8914181   -103.84535    2.2640639    8.3720819    8.9825221    620.04388
  138600    292.90661       0.0693   0.70577362    9.0246065   -103.87155    2.0823633    8.2642577    8.9829422    612.08695
  138700    286.76946      0.06935    -1.232418    9.3024196   -104.25247    2.0387324    8.3194725    8.9833622     616.2052
  138800    264.63793       0.0694     1.140683    8.7396998    -104.1409    1.8813926    8.3381045    8.9837823    617.61412
  138900    309.08108      0.06945  -0.58091328     8.890741   -103.82903    2.1973526    8.2805019    8.9842023     613.3761
  139000    300.28899       0.0695 -0.039768564    8.9236346    -103.4893    2.1348469    8.3638468    8.9846224    619.57882
  139100    335.12664      0.06955   0.43953613     8.167026   -103.80782    2.3825185    8.3314657    8.9850425    617.20893
  139200    349.65375       0.0696  -0.42243502    7.9630885   -104.19959    2.4857962    8.3222745    8.9854625    616.55686
  139300     240.8789      0.06965   0.28820889    9.6749779   -103.81595    1.7124823    8.3633305    8.9858826    619.62747
  139400    309.68224       0.0697  -0.20909026    9.2986948   -104.24149    2.2016264    8.3203566    8.9863026    616.47241
  139500    258.51769      0.06975  0.085036368    9.3113571   -103.75317    1.8378819    8.3371595    8.9867227    617.74624
  139600    290.27058       0.0698   0.40050062    9.4579877   -103.84421     2.063623    8.3131842    8.9871427    615.99857
  139700    350.02252      0.06985  -0.64149715    9.2407504   -104.13691    2.4884179    8.3374418    8.9875628    617.82491
  139800    317.29328       0.0699   0.57800029    9.1767531   -103.83433    2.2557356    8.3326161    8.9879829    617.49617
  139900    314.51979      0.06995  -0.10745995     9.299717   -103.78624    2.2360181    8.2705743    8.9884029    612.92715
  140000    264.23345         0.07  -0.72822913    9.0162837   -103.65202     1.878517    8.3163085     8.988823    616.34528
  140100    287.63255      0.07005   0.64439339    9.7699909   -103.98783    2.0448684    8.3551634     8.989243    619.25387
  140200    242.09037       0.0701   0.60464035    10.176691   -103.99642     1.721095     8.258478    8.9896631     612.1165
  140300    269.58256      0.07015   -1.2757204    9.5837565   -103.93435    1.9165454    8.3033988    8.9900831    615.47479
  140400    359.00067       0.0702   0.55968071    9.3596487   -104.07772    2.5522463    8.3712878    8.9905032    620.53593
  140500    313.91594      0.07025   0.55622225    9.2700364   -103.86988    2.2317251    8.3135387    8.9909233    616.28397
  140600    286.55532       0.0703    -1.011817    8.7700285   -103.80113      2.03721    8.2761941    8.9913433    613.54428
  140700    288.61255      0.07035   0.49411754    8.9503897   -103.85307    2.0518355    8.3643502    8.9917634    620.10858
  140800    279.96555       0.0704   0.20485143    8.7726703   -104.00618    1.9903613    8.3040028    8.9921834    615.66336
  140900    262.45839      0.07045 -0.006680106    8.0985545   -104.02594    1.8658975     8.257498    8.9926035    612.24406
  141000     252.0084       0.0705  -0.72000955    9.0593114   -103.76125    1.7916053    8.3102784    8.9930236     616.1862
  141100    233.51643      0.07055    1.2660733    8.3684973   -103.21571    1.6601402    8.3283723    8.9934436    617.55666
  141200    306.74122       0.0706   -1.4321861    8.9051929   -103.27058    2.1807178    8.2187163    8.9938637    609.45402
  141300    290.68451      0.07065   0.34997011    9.4259683   -103.34354    2.0665657    8.4393379    8.9942837    625.84332
  141400    336.40281       0.0707    1.7696487    9.3887467   -104.03955    2.3915912    8.3134347    8.9947038     616.5354
  141500     313.0592      0.07075   -2.5834081    8.7235529   -104.10318    2.2256343    8.1927036    8.9951238    607.61019
  141600    257.98009       0.0708   0.85941105    9.6603936   -103.66885    1.8340599     8.482569    8.9955439    629.13738
  141700     329.5921      0.07085    1.7276053    9.7150885   -104.08032    2.3431718    8.2255242     8.995964     610.1013
  141800     293.4364       0.0709   -2.3549783    8.4956755   -103.87281    2.0861297    8.2075695     8.996384      608.798
  141900    258.66894      0.07095   0.62206706    9.0325944   -103.48675    1.8389571     8.431725    8.9968041    625.45397
  142000    326.08628        0.071   0.40805983    8.1076312   -103.60571    2.3182478    8.3054668    8.9972241    616.11708
  142100     370.1053      0.07105  -0.12169067    8.3700214   -104.02941    2.6311926    8.2833799    8.9976442    614.50731
  142200    299.66118       0.0711 -0.036945918    8.2808748   -103.85706    2.1303836    8.3120113    8.9980643    616.66014
  142300    309.58157      0.07115   0.11143465    8.8110267   -103.94076    2.2009107    8.2885999    8.9984843    614.95198
  142400    331.84871       0.0712  -0.13270204    8.3583605   -103.97369    2.3592147    8.3177329    8.9989044    617.14223
  142500    257.64009      0.07125  0.012976007    8.9443036   -103.55713    1.8316428    8.3142845    8.9993244    616.91517
  142600     267.6287       0.0713   0.17989472    9.1106085   -103.95077    1.9026549     8.293257    8.9997445    615.38366
  142700    279.36798      0.07135 -0.050165708    9.2980131   -104.09626     1.986113    8.3084548    9.0001645    616.54016
  142800    241.10417       0.0714   0.18227673    9.1851391   -103.62708    1.7140838    8.2887559    9.0005846    615.10709
  142900    364.28086      0.07145  -0.90056277     10.00558   -103.96153    2.5897848     8.328721    9.0010047    618.10173
  143000     296.7702       0.0715    1.2868251    8.8125115   -103.64857    2.1098308    8.3537018    9.0014247    619.98457
  143100    270.26588      0.07155  -0.52910522    8.7565029   -103.53186    1.9214034    8.2087951    9.0018448    609.25849
  143200    280.82066       0.0716  -0.79918377    9.5111342    -103.6639    1.9964406    8.3727759    9.0022648    621.45819
  143300    228.66159      0.07165    1.5691719     8.616743   -103.73899    1.6256257     8.294522    9.0026849    615.67862
  143400    268.03306       0.0717    -1.634038    8.9638972   -104.08352    1.9055296    8.2314277    9.0031049    611.02382
  143500    312.38841      0.07175   0.73992669    8.8907782   -103.98633    2.2208654    8.3837584     9.003525    622.36046
  143600    333.92011       0.0718   0.61373437    8.0840836   -103.72234    2.3739409    8.3110528    9.0039451    616.99201
  143700    283.62204      0.07185    -1.055839    8.1778592   -103.43199    2.0163564    8.2999462    9.0043651    616.19623
  143800    311.09548       0.0719    0.7392229    9.1257288   -103.67916    2.2116736    8.2822281    9.0047852     614.9095
  143900      301.606      0.07195   -0.5601288    8.5743816   -103.85998    2.1442099    8.3365291    9.0052052    618.96993
  144000    236.77058        0.072    0.4912845    8.9246649   -104.01093     1.683275    8.3551624    9.0056253    620.38234
  144100    261.12736      0.07205   0.31175351    9.9235484   -104.00834    1.8564348     8.285313    9.0060454    615.22462
  144200    306.68956       0.0721   -1.0968813    9.7290977   -103.94058    2.1803506      8.30619    9.0064654    616.80361
  144300    335.59936      0.07215    0.7602391    9.7776986   -103.85738    2.3858792    8.3525132    9.0068855    620.27242
  144400    302.50107       0.0722   0.12281921    9.5448942   -103.66618    2.1505732    8.3084971    9.0073055    617.03248
  144500    307.83543      0.07225  -0.75465184    8.8975683    -103.8266    2.1884969    8.2912293    9.0077256     615.7788
  144600    286.63625       0.0723   0.38460896     9.869743   -103.66414    2.0377854    8.3810933    9.0081456    622.48191
  144700    346.32689      0.07235   0.86919796    8.8619849   -103.79371    2.4621445    8.2975571    9.0085657    616.30623
  144800    313.90322       0.0724     -1.13752    8.9849612   -103.72984    2.2316347    8.2948642    9.0089858    616.13494
  144900    315.55867      0.07245   0.59724544    9.5037205    -103.9477    2.2434038     8.325359    9.0094058     618.4289
  145000     297.3275       0.0725  -0.41038443    9.2800294   -104.09754    2.1137928    8.2968401    9.0098259    616.33918
  145100    229.65619      0.07255   0.14074114    10.279258   -103.94137    1.6326966    8.3460608    9.0102459     620.0245
  145200    298.10445       0.0726   0.39603233    9.9508359   -104.32869    2.1193164    8.3036588     9.010666    616.90324
  145300    313.06641      0.07265  -0.64624898    9.6333794   -103.83051    2.2256855    8.3326497    9.0110861    619.08592
  145400    289.68841       0.0727   0.17347401    10.096841   -103.45752    2.0594841    8.3458676    9.0115061    620.09686
  145500    290.39674      0.07275   0.53190272    8.2784349   -103.36053    2.0645199    8.3559794    9.0119262    620.87711
  145600    353.34753       0.0728  -0.40081979    9.7466191   -103.53548    2.5120564    8.2331781    9.0123462    611.78107
  145700    315.68452      0.07285  -0.30433186    9.4451968   -103.56159    2.2442985    8.4337657    9.0127663    626.71531
  145800    300.56038       0.0729    1.6488728    9.0045752    -103.9879    2.1367763    8.2985104    9.0131863    616.69319
  145900    355.16424      0.07295   -2.4992874    8.8313175    -104.2714    2.5249719    8.1915642    9.0136064    608.77399
  146000    293.45319        0.073    1.3271178    9.0688771   -103.79709    2.0862491    8.4560201    9.0140265     628.4569
  146100    300.36425      0.07305   0.85540527    8.7877511   -103.74196    2.1353819    8.1886348    9.0144465      608.613
  146200    342.46577       0.0731   -2.4013389    8.9539137   -103.58322    2.4346946    8.3392398    9.0148666    619.83547
  146300    344.29988      0.07315    1.9289065    9.4847863   -103.55237    2.4477339    8.4169652    9.0152866    625.64176
  146400    298.62425       0.0732  -0.41280075    9.0854598   -103.88108    2.1230118    8.2430146    9.0157067    612.74039
  146500    252.39895      0.07325  -0.30219522    8.5910316   -103.71851    1.7943819    8.3041201    9.0161268    617.31139
  146600    331.18601       0.0733    0.2688984    8.9073068   -103.98929    2.3545033    8.3417536    9.0165468    620.13788
  146700    366.87773      0.07335 -0.0077203379    9.1986227   -104.15319    2.6082468    8.2929891    9.0169669    616.54138
  146800    255.38536       0.0734  -0.45276269    7.9377828   -103.60846    1.8156132    8.3107745    9.0173869    617.89241
  146900    308.69763      0.07345   0.86524004      8.67706    -103.7886    2.1946265    8.3134043     9.017807    618.11673
  147000    332.09389       0.0735  -0.86948451    8.8937808   -103.61288    2.3609578    8.2384329     9.018227      612.571
  147100    283.25515      0.07355 -0.095339765    8.7069808   -103.53117    2.0137481    8.3442609    9.0186471    620.46877
  147200    239.00265       0.0736    1.1131581    9.2308698   -103.60864    1.6991434    8.3351492    9.0190672     619.8201
  147300     255.3068      0.07365   -1.0447768    9.1820234   -103.77207    1.8150547    8.2095016    9.0194872    610.50511
  147400    336.24663       0.0737   0.39178069    10.525084   -103.72655    2.3904809    8.3697243    9.0199073    622.44916
  147500    324.03731      0.07375   0.32811456    9.2126445   -103.33868     2.303681    8.3149413    9.0203273    618.40379
  147600    314.70162       0.0738  -0.39756647    7.9778962   -103.36021    2.2373107    8.2779976    9.0207474    615.68486
  147700    292.85577      0.07385  -0.15848691     7.979752    -103.4985    2.0820019    8.3748828    9.0211674    622.91981
  147800     262.1336       0.0739    1.1347364    7.3138669   -103.89059    1.8635885    8.2589432    9.0215875    614.32488
  147900    240.60605      0.07395   -1.5084219    7.2903049   -103.75278    1.7105425    8.2658264    9.0220076     614.8655
  148000    313.66849        0.074   0.92182676    9.5707661   -104.03415    2.2299659    8.3441068    9.0224276     620.7174
  148100    289.40868      0.07405     -0.18397    9.1459759   -103.66467    2.0574954    8.2359644    9.0228477    612.70122
  148200    332.28913       0.0741  -0.83228802    7.8352576   -103.82089    2.3623458     8.380752    9.0232677    623.50149
  148300    255.74342      0.07415    1.4870052    7.1511242    -103.2679    1.8181587    8.2871363    9.0236878    616.56547
  148400     298.8691       0.0742   -1.0431668    7.9061166   -103.62189    2.1247525    8.2755898    9.0241079    615.73507
  148500    325.05002      0.07425   0.23211756    9.2094165   -104.01196    2.3108807    8.3552633    9.0245279    621.69202
  148600    302.93378       0.0743   0.24432996    9.1865864   -104.00727    2.1536495    8.2775351     9.024948    615.93715
  148700    314.09774      0.07435  -0.47798596    9.3268219   -103.95642    2.2330176    8.3266019     9.025368    619.61708
  148800    349.73611       0.0744   0.59691117    8.8981183   -103.50223    2.4863817    8.3490943    9.0257881    621.31975
  148900    362.56433      0.07445  -0.36062191    8.6449007   -103.49095    2.5775815    8.3079501    9.0262081    618.28667
  149000    320.15561       0.0745    0.3627688    9.5326364   -103.74992    2.2760848    8.3004398    9.0266282     617.7565
  149100    310.62274      0.07455  -0.57032664    9.3024433   -103.89734    2.2083127    8.3014242    9.0270483    617.85851
  149200    296.93198       0.0746   0.37708876    8.2791344   -103.86165    2.1109809    8.3638799    9.0274683    622.53593
  149300     317.8816      0.07465   0.56000233    9.0320996    -104.0694    2.2599182    8.2792571    9.0278884      616.266
  149400    323.80528       0.0747   -1.2513314    8.9227397   -103.92394    2.3020315    8.3139902    9.0283084    618.88015
  149500    285.49463      0.07475   0.75660991    9.7873991   -103.32086    2.0296693     8.371224    9.0287285    623.16954
  149600    350.02504       0.0748   0.15512156    9.2682609   -103.35941    2.4884358    8.2758263    9.0291486    616.09662
  149700    335.72342      0.07485  -0.52090479    9.4789799   -103.48925    2.3867612    8.3777555    9.0295686    623.71379
  149800    303.20051       0.0749   0.80851285    8.9487159   -103.76441    2.1555458    8.2981481    9.0299887    617.81585
  149900    279.19195      0.07495  -0.69099024    9.4197442   -103.62823    1.9848616    8.2647476    9.0304087    615.35774
  150000    347.51721        0.075   0.04678229    9.0550884   -103.88444    2.4706068    8.3753055    9.0308288    623.61841
  150100    342.39381      0.07505   0.21009146    8.9846998   -103.62724     2.434183    8.2920158    9.0312488    617.44544
  150200     321.4707       0.0751  -0.33856231    9.4152647   -103.74709    2.2854342    8.2970672    9.0316689    617.85032
  150300    230.13146      0.07515   0.21307425    9.3972743   -103.65687    1.6360755    8.3360237     9.032089    620.78013
  150400    267.68869       0.0752   0.42114102    9.4015961   -103.76129    1.9030813    8.3002374     9.032509    618.14389
  150500    311.38779      0.07525  -0.57246079    9.2569356   -103.69048    2.2137517    8.2650085    9.0329291    615.54891
  150600    286.61999       0.0753   0.15067295    8.9911605   -103.41649    2.0376698    8.3558163    9.0333491    622.34089
  150700     309.8328      0.07535    0.3997957    9.4809873    -103.5592    2.2026968    8.2892348    9.0337692    617.41062
  150800    278.78305       0.0754  -0.74285973    8.7731956   -103.57245    1.9819546    8.2513409    9.0341892    614.61672
  150900    276.79789      0.07545     0.450897    9.3935098   -104.09986    1.9678414    8.3702514    9.0346093    623.50299
  151000    255.76883       0.0755   0.68764672    9.8936278   -104.05442    1.8183394    8.2375261    9.0350294    613.64476
  151100     285.4116      0.07555    -1.839245    9.9606108   -103.83443     2.029079    8.2956619    9.0354494    618.00425
  151200    280.47317       0.0756     1.887385    9.1100409   -103.37995    1.9939702    8.4047919    9.0358695    626.16325
  151300    325.99986      0.07565  -0.68269077    8.5135953   -103.41248    2.3176334    8.1709227    9.0362895    608.76812
  151400    379.94104       0.0757   -1.2243281    8.3302137   -103.88667    2.7011178    8.3886925    9.0367096    625.02194
  151500    237.19313      0.07575    2.5921583    8.4796707   -103.41964     1.686279    8.3910091    9.0371297     625.2236
  151600    303.48351       0.0758   -1.9823896    9.0063966    -103.6747    2.1575577      8.10086    9.0375497    603.63232
  151700    295.97451      0.07585  -0.42176865    8.7725915   -103.52658     2.104174    8.4387031    9.0379698    628.83579
  151800    320.25454       0.0759    2.2000126    8.7699174   -103.58815    2.2767881    8.2862014    9.0383898    617.50036
  151900    316.97007      0.07595   -1.8969345    8.3954832   -103.18202    2.2534378     8.180905    9.0388099    609.68184
  152000    325.62955        0.076 -0.011540666    8.4775898   -103.01076    2.3150008    8.3907831    9.0392299    625.35207
  152100    289.05789      0.07605    1.0669036    9.0396172   -103.25036    2.0550015    8.3140618      9.03965    619.66294
  152200    331.34569       0.0761  -0.74241277    8.7662327   -103.83732    2.3556386    8.2435405    9.0400701    614.43541
  152300    278.58191      0.07615    0.2808012    8.3181454   -103.67285    1.9805246    8.3457768    9.0404901    622.08453
  152400    292.71132       0.0762    0.2866036    9.7131413   -103.67187    2.0809749    8.2383514    9.0409102     614.1057
  152500    332.59562      0.07625   -1.1132557    8.7768022   -103.59004    2.3645247    8.3338112    9.0413302    621.25035
  152600    319.58168       0.0763    1.2793553    7.8392349   -102.76664    2.2720046    8.3442357    9.0417503    622.05636
  152700    360.83615      0.07635  0.054269973    7.7394254     -102.979    2.5652953    8.2343895    9.0421704    613.89592
  152800    334.82487       0.0764   -1.3393441     9.002694    -103.4111    2.3803731     8.284212    9.0425904    617.63901
  152900    354.34884      0.07645   0.77750391     10.25377   -103.78922     2.519175     8.396381    9.0430105    626.03099
  153000    295.38314       0.0765   0.62989669    8.8864047   -103.64972    2.0999697    8.2849917    9.0434305    617.75454
  153100    291.00825      0.07655   -1.2090386    9.4099103   -103.71422    2.0688673    8.2852878    9.0438506    617.80531
  153200    296.62342       0.0766   0.74862682    9.4475655   -103.91719    2.1087872    8.3586051    9.0442706    623.30128
  153300    230.72442      0.07665   0.38490141    7.8804408   -103.72638    1.6402909    8.2564035    9.0446907     615.7087
  153400    296.46919       0.0767   -1.0299688    7.4697341   -103.97511    2.1076908    8.2768311    9.0451108    617.26072
  153500    257.76337      0.07675   0.44574641    9.0637737    -103.2346    1.8325192     8.326949    9.0455308     621.0272
  153600    353.56394       0.0768   0.27989881    8.9626591   -103.61942     2.513595    8.3393743    9.0459509    621.98277
  153700    313.99333      0.07685  -0.18168896    9.4334608   -103.57262    2.2322753     8.263431    9.0463709    616.34724
  153800     339.1242       0.0769  -0.36501056    9.6533145   -103.89148    2.4109384    8.3421908     9.046791    622.25062
  153900    287.84512      0.07695   0.61284518    9.8299871   -103.73093    2.0463796    8.3351582     9.047211    621.75492
  154000    244.55075        0.077  -0.27887074    9.1685311   -103.87554    1.7385866    8.3134931    9.0476311    620.16762
  154100    246.28422      0.07705   0.30420277    9.2422493   -104.07628    1.7509104    8.2811145    9.0480512    617.78093
  154200    302.02809       0.0771 -0.078244529    7.9007462   -103.91384    2.1472107    8.2511402    9.0484712    615.57339
  154300    297.92082      0.07715  -0.90471543    9.2944351   -103.56131    2.1180108    8.3016097    9.0488913     619.3674
  154400    315.95608       0.0772    1.2100672    8.5271922    -103.4645    2.2462291    8.3346336    9.0493113    621.86011
  154500    287.83357      0.07725  -0.13986269    8.6136583   -103.43535    2.0462975    8.2197976    9.0497314    613.32049
  154600    286.90288       0.0773  -0.95197126     8.820024   -103.78116    2.0396809    8.3039905    9.0501515     619.6313
  154700    271.63416      0.07735    1.0416031     9.309424   -103.55292    1.9311309     8.305973    9.0505715      619.808
  154800    364.57709       0.0774  -0.54283113    9.3804115   -103.61611    2.5918908    8.2344069    9.0509916    614.49612
  154900    280.06275      0.07745  -0.23478606    8.8229438   -103.22531    1.9910523    8.3679747    9.0514116    624.49265
  155000    288.40806       0.0775    1.1942113    9.1459446   -103.38171    2.0503817    8.2259778    9.0518317    613.92407
  155100    331.96085      0.07755   -1.7707036    8.3128282   -103.62635    2.3600119    8.2817598    9.0522517     618.1159
  155200    298.87579       0.0776      1.36592    8.8799562   -103.71749    2.1248001    8.3647943    9.0526718    624.34222
  155300    279.03021      0.07765  -0.25583282    9.3626396   -104.05314    1.9837117    8.2027206    9.0530919    612.27356
  155400    282.78221       0.0777  -0.63113209    9.6025087   -104.05865    2.0103858    8.2981313    9.0535119    619.42402
  155500    274.07061      0.07775   0.53035015    8.5426178   -103.56222    1.9484524    8.3233618     9.053932     621.3362
  155600    284.44804       0.0778 -0.028026141    8.0076334   -103.32411    2.0222287    8.2755972     9.054352    617.79926
  155700    363.32645      0.07785  -0.60817595    7.9371443   -103.72716    2.5829997    8.3424699    9.0547721    622.82041
  155800    291.41072       0.0779     1.702855    8.3689955   -103.59864    2.0717285    8.2848711    9.0551922    618.54897
  155900    265.69359      0.07795   -2.2751797    8.4664994   -103.73871    1.8888976    8.2545485    9.0556122    616.31367
  156000    248.59685        0.078    1.5669689    9.2994625   -103.53926    1.7673516    8.3476184    9.0560323    623.29151
  156100    293.29578      0.07805  -0.25009625    9.2493988   -103.48035      2.08513    8.2705707    9.0564523    617.56723
  156200    350.21818       0.0781  -0.79448425    9.2830409   -103.66791    2.4898089    8.3408123    9.0568724    622.84109
  156300    320.71917      0.07815    1.0411501    9.2599319   -103.49407    2.2800914     8.343954    9.0572924    623.10459
  156400    313.96811       0.0782 -0.061327338    8.6049087   -103.43928     2.232096    8.2301101    9.0577125    614.63153
  156500    328.41497      0.07825   -1.0354794    8.5989342   -103.68876    2.3348031    8.2918293    9.0581326    619.26949
  156600    261.20517       0.0783    1.0765866    10.157629   -103.52562     1.856988    8.3512444    9.0585526    623.73579
  156700    313.62604      0.07835   -0.2499357    10.064834    -103.7818    2.2296641    8.2367351    9.0589727    615.21188
  156800    262.36811       0.0784  -0.53089697    9.7044763    -103.1462    1.8652557    8.3380599    9.0593927    622.80882
  156900    362.38214      0.07845    0.7801283    9.8362114   -103.30288    2.5762863    8.3076308    9.0598128     620.5647
  157000    323.04246       0.0785  -0.25707598    8.9222555   -103.33667    2.2966083    8.2611847    9.0602328    617.12388
  157100    264.80473      0.07855  -0.22087213    7.9765118    -103.2464    1.8825784    8.2790058    9.0606529    618.48382
  157200    353.19339       0.0786   0.12529045    7.6097453   -103.89186    2.5109606    8.2649921     9.061073    617.46554
  157300    306.42798      0.07865 -0.097082818    8.6834125    -103.8412    2.1784908    8.2871088     9.061493    619.14656
  157400     289.4084       0.0787   0.13110744    8.3012366   -103.88728    2.0574934    8.2517949    9.0619131    616.53676
  157500    259.22956      0.07875  0.038774001     7.483202   -103.69193    1.8429428    8.2821048    9.0623331    618.83007
  157600    351.74872       0.0788  -0.33746978    8.2053726   -103.86667      2.50069    8.3044641    9.0627532    620.52949
  157700    318.75787      0.07885   0.72556695    8.9812556   -103.34871    2.2661479    8.2777193    9.0631733    618.55972
  157800    344.34565       0.0789   -1.4330533    8.7690871   -103.53369    2.4480592    8.3041584    9.0635933    620.56417
  157900    283.79799      0.07895    1.8094925    9.0623245   -103.56062    2.0176073    8.3513889    9.0640134    624.12259
  158000    280.79454        0.079  -0.36859845    7.4908318   -103.75798    1.9962549    8.1938021    9.0644334    612.37407
  158100    260.23336      0.07905   -1.6552131    8.2189814   -103.61089    1.8500791    8.2919698    9.0648535    619.73948
  158200    304.62314       0.0791    2.2513116    9.2247387    -103.5872    2.1656597    8.3497442    9.0652735    624.08644
  158300    363.90571      0.07915   -1.6206518    9.0710705   -103.83638    2.5871177    8.1834543    9.0656936    611.68574
  158400    278.41498       0.0792   0.21787547    8.8903018   -103.45521    1.9793378    8.3752259    9.0661137    626.04903
  158500    265.77712      0.07925   0.71243588    8.5783249   -103.23821    1.8894914    8.2921508    9.0665337    619.86788
  158600    385.40672       0.0793   -1.0848661    9.4488907   -103.68992    2.7399751    8.2901875    9.0669538    619.74983
  158700    277.60409      0.07935    1.2816278    9.8741981   -103.19028    1.9735729    8.3706996    9.0673738    625.79766
  158800    302.60793       0.0794  -0.94149372    8.9345119   -103.48303     2.151333    8.2638585    9.0677939    617.83879
  158900    271.57063      0.07945    0.4038601    9.9092909   -103.35061    1.9306793    8.3211901     9.068214    622.15395
  159000    276.33117       0.0795   0.19085649    9.0652552   -103.49136    1.9645234    8.2925776     9.068634    620.04338
  159100    278.82365      0.07955    -0.720481    9.4609548   -103.60476    1.9822432    8.3593999    9.0690541     625.0687
  159200    316.45095       0.0796    1.1571206    10.076826   -103.68428    2.2497472    8.3589548    9.0694741    625.06437
  159300     346.9359      0.07965  -0.56208804    9.2437665   -103.40293    2.4664742    8.2287628    9.0698942    615.35739
  159400    295.65272       0.0797  -0.48979273    9.9303329   -103.14835    2.1018863    8.3360115    9.0703142    623.40646
  159500    263.45826      0.07975    1.0538964    9.7827897   -103.22056    1.8730059    8.3478287    9.0707343    624.31912
  159600    252.65305       0.0798   -0.4999762    9.1067013   -103.71813    1.7961883    8.1956609    9.0711544    612.96715
  159700    273.45606      0.07985  -0.67515558    10.127435   -104.01786    1.9440833    8.3046171    9.0715744    621.14492
  159800      240.747       0.0799   0.71092274     9.201347   -103.50223    1.7115446    8.3089439    9.0719945    621.49733
  159900    317.97716      0.07995   0.10664119    8.9911493   -103.70917    2.2605975    8.2546069    9.0724145    617.46158
  160000    301.06621         0.08  -0.90130533     7.736531   -103.49471    2.1403724    8.3552716    9.0728346    625.02045
  160100    320.81682      0.08005    1.4305517      8.21757   -103.33868    2.2807856    8.2835592    9.0732547    619.68465
  160200    319.72169       0.0801   -1.2583981    8.8994212   -103.09772        2.273    8.2275135    9.0736747    615.52042
  160300    302.18198      0.08015   0.14690288    10.204254   -103.61566    2.1483047    8.4083308    9.0740948    629.07693
  160400    260.59142       0.0802    1.0615886    10.176464   -103.63165    1.8526247    8.2743017    9.0745148    619.07808
  160500    307.31135      0.08025  -0.99020623    10.340698   -103.69528    2.1847711    8.2393145    9.0749349    616.48889
  160600    302.99529       0.0803  -0.11150399    9.7164627   -103.24038    2.1540868    8.3651567    9.0753549    625.93374
  160700     315.3986      0.08035    1.1717807    8.3838153   -103.09207    2.2422658    8.2691406     9.075775    618.77785
  160800    339.94722       0.0804   -1.6618198    7.2748349   -103.50149    2.4167895    8.2475682    9.0761951    617.19215
  160900    265.78376      0.08045    1.3186642    8.5347696   -103.35583    1.8895386    8.3559282    9.0766151    625.33002
  161000    296.58244       0.0805  -0.42783451    9.3894364   -103.48461    2.1084959    8.2147013    9.0770352    614.78952
  161100    270.83805      0.08055  -0.83586959    9.4385083   -103.42272    1.9254711    8.2902787    9.0774552    620.47445
  161200    292.30588       0.0806    1.5423356    10.046061   -103.53893    2.0780925    8.3586853    9.0778753     625.6232
  161300    364.04732      0.08065  -0.78780471    9.5603107   -103.37316    2.5881245    8.2175145    9.0782953    615.08544
  161400    313.84504       0.0807  -0.33447454    8.6286956   -103.14049     2.231221    8.3175227    9.0787154    622.59992
  161500     286.2232      0.08075    1.2077084    8.5865444   -103.19101    2.0348489    8.2936368    9.0791355    620.84068
  161600    322.83256       0.0808   -1.2501457    7.6351335   -103.45683    2.2951161    8.2326518    9.0795555    616.30402
  161700    299.85233      0.08085   0.36725241    6.8225311   -103.41864    2.1317426    8.3184085    9.0799756    622.75265
  161800    277.47367       0.0809   0.51217203    7.0660278   -103.34369    1.9726458    8.2630391    9.0803956    618.63607
  161900     334.9627      0.08095  -0.98932435    8.0999809   -103.59529     2.381353    8.2644004    9.0808157    618.76661
  162000    308.01412        0.081   0.62598807    8.9659917   -103.25913    2.1897673    8.3309122    9.0812358    623.77529
  162100    293.45461      0.08105  0.034426218    8.2768336     -102.834    2.0862592    8.2899762    9.0816558    620.73893
  162200    337.71036       0.0811  -0.21899274    8.4314203   -103.15517    2.4008869    8.3172907    9.0820759    622.81299
  162300    329.97415      0.08115   0.43523668    9.4364253   -103.71222    2.3458878    8.2923474    9.0824959    620.97392
  162400    268.61733       0.0812  -0.60866027    9.0585442   -103.49233    1.9096833    8.3165111     9.082916    622.81223
  162500    323.03701      0.08125    0.3902906    8.7318375   -103.66785    2.2965696    8.3006163     9.083336    621.65063
  162600    309.47649       0.0813  -0.31605796    8.7876927   -103.26313    2.2001637     8.298859    9.0837561    621.54777
  162700    296.97031      0.08135   0.48661095    9.6720581   -102.88222    2.1112534    8.3155744    9.0841762    622.82848
  162800    322.34837       0.0814  -0.20982884    9.0475638     -103.006    2.2916739      8.27897    9.0845962    620.11552
  162900    286.93392      0.08145  -0.22800208    8.8241617   -103.31032    2.0399016    8.3482038    9.0850163    625.33022
  163000    272.99231       0.0815   0.45464074    9.7377902   -103.53777    1.9407864    8.3095722    9.0854363    622.46526
  163100    290.91307      0.08155  -0.13170865    9.4819368   -103.64932    2.0681906    8.2399218    9.0858564    617.27632
  163200    261.45318       0.0816  -0.48172719    8.5838495   -103.21439    1.8587512    8.3276175    9.0862765     623.8747
  163300    327.41423      0.08165   0.63151079    7.6002883   -103.17006    2.3276886    8.3037307    9.0866965    622.11395
  163400    330.63084       0.0817  -0.55327809    7.4818488   -103.27648    2.3505565    8.2937605    9.0871166     621.3957
  163500    282.03204      0.08175   0.59583899    7.5079156   -103.32875    2.0050526    8.2962053    9.0875366    621.60761
  163600    281.95025       0.0818 -0.0030340448    8.0573859   -103.50815    2.0044712    8.2251212    9.0879567       616.31
  163700    309.70072      0.08185   -0.8181196     9.513045   -103.65846    2.2017578    8.2936088    9.0883767    621.47051
  163800    290.49182       0.0819   0.90656299    9.5869128   -103.36776    2.0651958    8.3149003    9.0887968    623.09476
  163900    309.58703      0.08195  -0.10815291    9.2596221   -103.25762    2.2009495    8.2637332    9.0892169    619.28907
  164000    360.69717        0.082  -0.78182038    9.4829254   -103.29568    2.5643073     8.321315    9.0896369     623.6331
  164100    310.28093      0.08205    1.1626116    9.4793659   -103.12939    2.2058827    8.2874259     9.090057    621.12202
  164200    253.80214       0.0821  -0.69479963    9.6881248   -103.22411    1.8043575     8.261111     9.090477    619.17839
  164300    297.12677      0.08215  0.045793252    10.597641   -103.40391    2.1123657    8.2479837    9.0908971    618.22305
  164400    342.18513       0.0822   0.13229573    10.276664   -103.49206    2.4326995    8.2846676    9.0913171    621.00137
  164500    332.98417      0.08225  -0.40664202    9.3837119   -103.32111     2.367287    8.3045035    9.0917372    622.51699
  164600    329.94445       0.0823   0.88806638    9.2676087   -103.58201    2.3456767    8.3395959    9.0921573    625.17644
  164700    293.39436      0.08235  -0.51743563    8.8150518   -103.81938    2.0858309    8.2461125    9.0925773    618.19703
  164800    271.16783       0.0824  -0.10666501    9.1639022   -103.72118    1.9278156    8.3157629    9.0929974    623.44741
  164900    237.08113      0.08245    0.2121192    9.4744956   -103.09818    1.6854827    8.2978474    9.0934174    622.13299
  165000    331.42288       0.0825   -0.3207411    9.2222437   -103.42753    2.3561873    8.2985517    9.0938375    622.21454
  165100       265.73      0.08255   0.41657877    8.3337707   -103.12012    1.8891564     8.318223    9.0942576    623.71827
  165200    267.18928       0.0826  0.053092888    9.3671845   -103.11059    1.8995309    8.2606227    9.0946776    619.42789
  165300    348.49649      0.08265  -0.85378421    9.9578594   -103.37678    2.4775689     8.294127    9.0950977    621.96895
  165400    259.95543       0.0827   0.95955385    9.6822171   -102.79706    1.8481032    8.4186323    9.0955177    631.33465
  165500    334.75477      0.08275  0.010236846    9.8053094   -103.35569    2.3798748    8.3244291    9.0959378    624.29895
  165600    264.64724       0.0828  -0.22373693    8.7872609   -103.44061    1.8814588    8.2816586    9.0963578    621.12001
  165700    298.33978      0.08285   0.11604711     8.789164   -103.78397    2.1209894    8.2557582    9.0967779    619.20609
  165800    274.10597       0.0829  -0.54665066    8.6408893   -103.41258    1.9487038    8.3090291     9.097198    623.23034
  165900    328.40687      0.08295   0.60851064    8.6650334   -103.30844    2.3347455    8.2976481     9.097618    622.40543
  166000    285.78297        0.083  -0.38292855    9.1144419   -102.98674    2.0317191    8.2740057    9.0980381    620.66067
  166100    301.85148      0.08305   0.31620223    7.9169377   -103.15167    2.1459551    8.3031555    9.0984581    622.87605
  166200    291.79426       0.0831  -0.32432497    7.8335173   -103.38577    2.0744553      8.24898    9.0988782    618.84055
  166300    264.78146      0.08315  0.035071435    7.4242378   -103.30406    1.8824129    8.3482714    9.0992983    626.31833
  166400    302.38612       0.0832   0.77160197    10.033558   -103.48718    2.1497561    8.2828452    9.0997183     621.4385
  166500    339.12446      0.08325    -1.305694    9.0668115   -103.66559    2.4109402    8.2825196    9.1001384    621.44275
  166600    290.23275       0.0833    1.1145325    8.6077651   -103.38684     2.063354    8.3266976    9.1005584     624.7863
  166700    288.25079      0.08335  -0.33705464    8.1696714   -103.25504    2.0492637    8.2360491    9.1009785    618.01309
  166800    343.54566       0.0834  -0.45760715    7.2217454    -103.1355    2.4423719    8.3154275    9.1013985    623.99826
  166900    394.39129      0.08345   0.85586539    8.6158499   -103.51243    2.8038491    8.3044861    9.1018186    623.20596
  167000    292.83918       0.0835   -0.4906793    8.3755683   -103.28504    2.0818839     8.196432    9.1022387    615.12548
  167100     263.9108      0.08355  -0.68055599    8.0109575   -103.28476    1.8762231    8.2868113    9.1026587    621.93696
  167200    324.51913       0.0836    1.2770982    8.0214628   -103.57265    2.3071064    8.2968454    9.1030788    622.71878
  167300    328.42947      0.08365   -1.1599206    7.4031741   -103.16863    2.3349062    8.2895837    9.1034988    622.20246
  167400    360.04422       0.0837   0.90053169    8.0002957   -102.92077    2.5596653    8.3726745    9.1039189    628.46811
  167500    319.55325      0.08375 -0.044184221    7.7976171   -103.11147    2.2718024    8.2491275    9.1043389    619.22302
  167600    253.74726       0.0838  -0.45132553    8.0604145   -103.03475    1.8039674    8.2627956     9.104759    620.27764
  167700    284.11188      0.08385  0.095754484    9.0895279   -103.24104    2.0198389    8.3110393    9.1051791    623.92801
  167800    296.13266       0.0839 0.00046715258    9.0459958   -103.39201    2.1052983    8.2813413    9.1055991     621.7272
  167900    295.24499      0.08395   0.45853262    9.4064824   -103.44561    2.0989876    8.2939439    9.1060192    622.70207
  168000    314.86791        0.084  -0.61723077    9.4734544   -103.48486     2.238493    8.2609535    9.1064392    620.25379
  168100    300.74335      0.08405   0.15425288     8.975515   -103.09483    2.1380771    8.3518833    9.1068593    627.10997
  168200    360.04927       0.0841   0.45872478    8.6588791   -103.16602    2.5597012    8.2811141    9.1072794    621.82487
  168300     329.9771      0.08415  -0.30548247    7.9028389   -103.35339    2.3459088     8.247556    9.1076994    619.33357
  168400    286.47538       0.0842  -0.21707309    8.1458873   -103.48114    2.0366417    8.3421113    9.1081195     626.4629
  168500    260.94596      0.08425   0.55603882    8.3368563   -103.30333    1.8551452    8.2383607    9.1085395    618.70014
  168600     265.7257       0.0843  -0.54619031    8.7637176   -103.03618    1.8891258    8.2616478    9.1089596    620.47761
  168700     317.4731      0.08435  -0.20655593    8.7247229   -103.07365    2.2570141    8.3452115    9.1093796    626.78243
  168800    306.91491       0.0844   0.99887787    9.1965373   -103.04447    2.1819526    8.3190519    9.1097997    624.84647
  168900    267.68898      0.08445  -0.79857364    8.6939605   -103.38598    1.9030834    8.2743819    9.1102198    621.51995
  169000    278.04471       0.0845   0.28471692    9.9451115   -103.71499    1.9767055    8.2717021    9.1106398    621.34731
  169100    308.11697      0.08455   0.16003683    10.011513   -103.72353    2.1904985    8.2475648    9.1110599    619.56275
  169200    303.92967       0.0846  -0.74362557    8.4797434   -103.40171    2.1607296    8.2837558    9.1114799    622.31013
  169300    260.23305      0.08465   0.62973941    8.3370239   -102.70518    1.8500769    8.2999883       9.1119    623.55833
  169400    320.95513       0.0847  0.093326641    7.3063682    -103.0591    2.2817689    8.2813544    9.1123201    622.18709
  169500    327.17849      0.08475   0.07924896    7.4206806   -103.34304    2.3260126    8.1963201    9.1127401    615.82676
  169600    295.64456       0.0848   -1.0565604    8.2594543   -103.21865    2.1018282    8.3022834    9.1131602    623.81702
  169700    308.97198      0.08485    1.2430338    8.6314649   -103.29099     2.196577    8.3224774    9.1135802    625.36317
  169800    346.64075       0.0849     -0.33093    9.4214741   -103.59554    2.4643758     8.233106    9.1140003     618.6762
  169900    291.49463      0.08495  -0.36279858    9.8074308   -103.41734    2.0723251    8.2654793    9.1144203    621.13751
  170000    270.55984        0.085   0.15496991    9.5452145   -103.49724    1.9234932    8.2725673    9.1148404    621.69881
  170100     279.1703      0.08505   0.37417224    10.039647   -103.40723    1.9847076    8.2991669    9.1152605    623.72657
  170200    362.07202       0.0851  -0.56257668    10.000336   -103.52972    2.5740815    8.2571557    9.1156805     620.5978
  170300    322.90844      0.08515   0.40372206    8.7716013   -103.16945    2.2956555    8.3401612    9.1161006    626.86527
  170400    310.43529       0.0852 -0.0044064533    8.6369804   -103.14836    2.2069801    8.2578084    9.1165206    620.70405
  170500    236.32269      0.08525   0.23790444    8.6641845   -103.04254    1.6800908    8.2607649    9.1169407    620.95489
  170600    279.83226       0.0853  -0.86452234    8.7215256   -103.43254    1.9894137    8.2450249    9.1173607    619.80028
  170700    317.41343      0.08535   0.73475499    9.8016177   -103.41076    2.2565898    8.3486013    9.1177808    627.61531
  170800    285.80848       0.0854  0.023834738    10.523412   -103.02176    2.0319005    8.3020598    9.1182009    624.14525
  170900     307.6175      0.08545  -0.73050345    9.1360067   -102.68066    2.1869475    8.3540143    9.1186209     628.0801
  171000    333.88636       0.0855    1.5716853    8.7766102   -102.72138     2.373701    8.3303691     9.119041    626.33124
  171100    313.43313      0.08555   -1.2160654    9.7696928     -103.221    2.2282927    8.1986967     9.119461    616.45965
  171200    271.43454       0.0856  -0.22974651    8.8831354   -103.07121    1.9297118    8.3484607    9.1198811    627.74931
  171300    312.18216      0.08565    1.2156817    9.5195122   -103.15828    2.2193991    8.2456855    9.1203012    620.04985
  171400    314.00109       0.0857   -1.7675911    9.3302095   -103.16755    2.2323304    8.2869682    9.1207212    623.18288
  171500    292.24416      0.08575    1.6295069    8.9559907   -103.28157    2.0776538    8.3609674    9.1211413     628.7766
  171600     265.6349       0.0858  -0.73278547    8.6048698   -103.46828    1.8884803    8.2052414    9.1215613    617.09383
  171700    263.82019      0.08585   -0.1402141    7.4896975   -103.46281     1.875579    8.3018275    9.1219814    624.38656
  171800    294.21164       0.0859     0.612785    6.7257371    -103.0261    2.0916412    8.2763254    9.1224014    622.49719
  171900    354.62033      0.08595   -1.0991548    7.3902091   -103.21727    2.5211052    8.2728243    9.1228215    622.26251
  172000     308.0268        0.086    1.2402406    9.2876227   -103.13111    2.1898574    8.3268253    9.1232416    626.35318
  172100    295.86003      0.08605  -0.50905081    8.8406088   -103.37748      2.10336     8.275138    9.1236616    622.49386
  172200    286.25921       0.0861   -0.2971964    9.3401017    -103.5338    2.0351049    8.2943467    9.1240817    623.96756
  172300    262.91433      0.08615   0.73653196    10.024709   -103.54494    1.8691389     8.298116    9.1245017    624.27985
  172400     249.8666       0.0862  -0.77902636    9.7398452   -103.44712    1.7763786    8.2697265    9.1249218    622.17271
  172500    318.09842      0.08625   0.57198545    8.9615324   -103.38544    2.2614596    8.3022786    9.1253419    624.65052
  172600    297.71167       0.0863  -0.14380642    8.0460174   -102.92009     2.116524    8.3086286    9.1257619    625.15706
  172700    308.43997      0.08635  0.060442674     7.368316    -102.8878    2.1927948    8.2776081     9.126182    622.85169
  172800    337.39952       0.0864  -0.64607723    8.4164673   -103.26795    2.3986771    8.2969828     9.126602    624.33828
  172900    273.00262      0.08645   0.88687405    9.2375895   -103.37879    1.9408597    8.3235052    9.1270221    626.36288
  173000    274.60229       0.0865   -0.4090272     9.836006    -103.4375    1.9522322    8.2588428    9.1274421    621.52549
  173100    274.93264      0.08655   -0.1659717    11.025211   -103.26472    1.9545808    8.3054649    9.1278622    625.06284
  173200     310.3908       0.0866   0.79426102    10.199205   -103.13807    2.2066638    8.3249446    9.1282823     626.5577
  173300    369.04017      0.08665  -0.79373546    9.9002194     -103.131    2.6236202    8.2081243    9.1287023    617.79392
  173400    334.05701       0.0867   -0.2814736    10.012427   -103.09261    2.3749141    8.3912883    9.1291224    631.60903
  173500    300.39625      0.08675    1.3620656    10.263523   -103.14991    2.1356094    8.3182614    9.1295424    626.14113
  173600    262.93689       0.0868   -1.4950239    9.8347054   -103.19746    1.8692993    8.2358197    9.1299625    619.96401
  173700    275.46132      0.08685   0.48070243    10.591792   -103.39112    1.9583394    8.4122142    9.1303825    633.27152
  173800    312.06976       0.0869    1.2321391    9.2190117   -103.26259       2.2186     8.255233    9.1308026    621.48256
  173900    364.64848      0.08695   -2.2752906    8.7152964   -103.17744    2.5923983    8.2724831    9.1312227    622.80986
  174000    283.80898        0.087    1.7548726    8.5572725   -102.75044    2.0176854    8.3896644    9.1316427    631.66114
  174100    275.81448      0.08705  -0.46996291    9.0820403   -102.97885    1.9608501    8.2121096    9.1320628    618.32141
  174200    265.25405       0.0871  -0.87622953    9.2198493   -103.44451    1.8857727    8.3723582    9.1324828    630.41614
  174300    287.86782      0.08715    1.9037657     9.007743   -103.56459     2.046541    8.3550276    9.1329029    629.14013
  174400     281.0178       0.0872   -1.3716472    9.5274668   -103.18957    1.9978421     8.117676     9.133323    611.29548
  174500     306.9868      0.08725  -0.71237469    9.5769289   -103.07184    2.1824637    8.4181002     9.133743    633.94786
  174600    280.60076       0.0873    2.1248577    8.5720694   -102.81289    1.9948772    8.2863071    9.1341631    624.05152
  174700    305.21684      0.08735   -1.7215777    8.5726495   -103.06435    2.1698805    8.2108685    9.1345831    618.39858
  174800     294.3708       0.0874   0.54313961    9.2888082   -103.46454    2.0927727    8.3381307    9.1350032    628.01217
  174900    245.73089      0.08745   0.35584144    10.238687   -103.46059    1.7469766    8.2461343    9.1354232    621.11173
  175000    252.28052       0.0875   -0.8508095    9.8964983   -103.34007    1.7935399    8.3184048    9.1358433    626.58407
  175100    274.29356      0.08755   0.75514068    8.9405516   -103.22167    1.9500374    8.3139165    9.1362634    626.27479
  175200    310.88644       0.0876  -0.16962553    8.9096553   -103.13454    2.2101875    8.2540933    9.1366834    621.79699
  175300    303.99801      0.08765  -0.22290595    9.3120797   -102.88683    2.1612155    8.2752884    9.1371035    623.42231
  175400     329.8927       0.0877   0.23992206    8.7108688    -103.1263    2.3453088    8.3124783    9.1375235    626.25282
  175500    258.21865      0.08775   0.14436945    9.9017583   -103.24208    1.8357559    8.2640297    9.1379436    622.63137
  175600    291.33029       0.0878  -0.75631469    10.234648    -103.4606    2.0711568    8.2645488    9.1383637    622.69911
  175700    275.66346      0.08785    0.6882832    9.3117672   -103.15785    1.9597764    8.3694693    9.1387837    630.63342
  175800    340.03855       0.0879   0.44437072    7.5085593   -103.14192    2.4174388    8.2237555    9.1392038    619.68247
  175900    345.56667      0.08795   -1.3854924    6.0361108   -102.78678    2.4567399    8.2593795    9.1396238    622.39544
  176000      357.914        0.088    1.1252279    7.6466147   -102.55071    2.5445208    8.3541322    9.1400439    629.56458
  176100    326.61003      0.08805   0.17842027    6.1343789   -102.99818    2.3219713    8.1770687    9.1404639    616.24945
  176200    302.08258       0.0881   -1.3747095    7.8138046   -103.34942    2.1475981    8.2754758     9.140884    623.69438
  176300    282.26929      0.08815    1.2985203     8.823607   -103.34113    2.0067393    8.3579396    9.1413041    629.93834
  176400     321.1512       0.0882 -0.044570348    8.5299651    -103.3892    2.2831628    8.1514477    9.1417241    614.40326
  176500    289.16392      0.08825   -1.6338015    8.6146828   -102.99278    2.0557554    8.3544067    9.1421442    629.72993
  176600    329.00448       0.0883    2.2912537    9.7949309   -102.79075    2.3389941    8.3194975    9.1425642     627.1274
  176700    365.25296      0.08835   -1.3780082    9.1288632    -102.8675    2.5966958    8.1894509    9.1429843    617.35279
  176800    316.27616       0.0884  0.095536835    9.1344737    -103.1896    2.2485046    8.3303629    9.1434044    628.00414
  176900    305.54549      0.08845   0.62244019     9.940132   -103.33481     2.172217    8.3021016    9.1438244    625.90235
  177000    311.96831       0.0885  -0.72896427    9.5607561   -103.44028    2.2178788    8.2253609    9.1442445    620.14529
  177100    289.53918      0.08855  -0.33584545    9.0000255   -103.13263    2.0584232     8.350858    9.1446645    629.63598
  177200    287.52073       0.0886     1.306213    9.3507602   -102.57021    2.0440734    8.3160149    9.1450846    627.03769
  177300     350.0993      0.08865  -0.99332341    8.6998405   -102.96965    2.4889637    8.2704769    9.1455046    623.63272
  177400    265.54868       0.0887   0.47926949    8.1238756   -102.63162    1.8878674    8.3393408    9.1459247    628.85425
  177500    362.06635      0.08875   0.40490451    8.7721032   -103.38804    2.5740412    8.2614359    9.1463448     623.0082
  177600    306.17756       0.0888   -1.2759167    8.7978744   -103.32909    2.1767106     8.224342    9.1467648    620.23937
  177700    264.31675      0.08885    0.6976378    9.6831758   -103.19622    1.8791092    8.4025129    9.1471849    633.70525
  177800    329.34447       0.0889    1.0167536    9.6124184   -103.35383    2.3414113    8.2518492    9.1476049    622.37099
  177900    324.28952      0.08895   -1.7343532    6.8363316   -102.77447     2.305474    8.2416388     9.148025    621.62945
  178000    286.64819        0.089   0.60952634    7.4320956    -102.6454    2.0378702    8.3996304     9.148445    633.57512
  178100    265.71147      0.08905    1.1394971     8.077817   -102.96539    1.8890247    8.2439078    9.1488651    621.85769
  178200    339.68409       0.0891   -1.8719317    7.8753546   -103.63795    2.4149188     8.237352    9.1492852     621.3917
  178300    282.09757      0.08915   0.87949998    7.4627237   -103.23377    2.0055185    8.3867696    9.1497052    632.69219
  178400    276.46934       0.0892   0.54971841    7.3106742   -103.10485    1.9655057    8.2330245    9.1501253    621.12228
  178500     346.5477      0.08925   -1.1082302    8.1512084   -103.54956    2.4637143    8.2931553    9.1505453    625.68744
  178600    259.58132       0.0893     1.027047    9.5098294   -103.17191    1.8454435     8.283862    9.1509654    625.01499
  178700    301.65791      0.08935  -0.74129622      9.63872   -103.35857     2.144579    8.2366996    9.1513855    621.48512
  178800    355.28758       0.0894  -0.16098762    9.4448962   -103.07939    2.5258488    8.3251187    9.1518055    628.18546
  178900    300.16261      0.08945    1.1576785    9.1772973   -102.65097    2.1339484    8.2865262    9.1522256     625.3021
  179000    298.54482       0.0895   -1.2041099    8.6899957   -103.05441    2.1224471    8.2360963    9.1526456    621.52517
  179100     287.7829      0.08955   -0.1487788    10.069388   -103.13757    2.0459373    8.3729626    9.1530657    631.88259
  179200    338.22299       0.0896    1.7394657    9.4904262   -103.32587    2.4045314    8.3438148    9.1534857    629.71179
  179300    255.73555      0.08965   -1.3465922    9.9870978   -102.70754    1.8181028     8.186762    9.1539058    617.88729
  179400    319.89132       0.0897  -0.40566487     9.992159   -103.21909    2.2742059    8.3958171    9.1543259    633.69458
  179500    333.84957      0.08975    1.6584496     8.931661   -103.16494    2.3734394    8.2478668    9.1547459    622.55624
  179600    351.47175       0.0898   -2.2142631    8.6148348   -103.00792    2.4987209    8.2756572     9.155166    624.68255
  179700     357.0571      0.08985    1.6984071    7.0044024   -103.02972    2.5384289    8.3771468     9.155586    632.37244
  179800    266.29483       0.0899 -0.091772833    7.9584523   -102.86898    1.8931719    8.1869866    9.1560061    618.04602
  179900     308.4218      0.08995   -1.2834646    8.7346269   -103.32334    2.1926656    8.2807444    9.1564262    625.15259
  180000    318.62073         0.09    1.5703172     9.586465   -103.42407    2.2651729    8.3111039    9.1568462    627.47336
  180100     258.5262      0.09005  -0.94435247     10.06305   -103.11603    1.8379424    8.2054303    9.1572663    619.52361
  180200    314.62199       0.0901   0.10730698    9.5949133    -103.2932    2.2367446    8.2996366    9.1576863    626.66509
  180300    309.51862      0.09015   0.20733042    8.4049727    -102.9862    2.2004632    8.2771247    9.1581064    624.99399
  180400    318.40649       0.0902  -0.29706583    8.8466405   -102.70412    2.2636498    8.2411019    9.1585264     622.3025
  180500       348.88      0.09025   0.38322422    8.0941389   -102.88577    2.4802954    8.2836211    9.1589465     625.5419
  180600    265.10981       0.0903 -0.081048357    7.7554898    -103.0463    1.8847473     8.279099    9.1593666    625.22909
  180700    290.33109      0.09035  -0.17158836    7.9894247   -103.31284    2.0640532    8.1802626    9.1597866    617.79339
  180800    301.15528       0.0904  -0.30957352    8.2497029   -103.27102    2.1410057    8.3405486    9.1602067    629.92747
  180900    307.47395      0.09045     1.116002    7.5039578   -102.89285     2.185927    8.2502836    9.1606267     623.1387
  181000    317.67011       0.0905   -1.2774659    8.3291643   -102.78467    2.2584146     8.225149    9.1610468    621.26879
  181100    333.05751      0.09055   0.64220424    8.2591441   -103.10144    2.3678084    8.3505502    9.1614668    630.76962
  181200    329.19968       0.0906   0.63934806    8.4709536   -103.26864    2.3403819    8.2383375    9.1618869    622.32202
  181300    321.69649      0.09065   -1.2670445    7.6226827   -103.31552    2.2870394    8.2211515     9.162307    621.05226
  181400    268.68137       0.0907   0.28624332    8.6923109   -103.14196    1.9101386    8.3372429     9.162727    629.85106
  181500    258.42372      0.09075    1.0817797    8.6543444   -103.05985    1.8372138    8.2329874    9.1631471    622.00341
  181600    272.01365       0.0908   -1.8478352    8.3301998    -103.0071    1.9338288    8.2730854    9.1635671    625.06148
  181700    288.25432      0.09085     1.955026     8.307689    -102.9453    2.0492887    8.2902942    9.1639872    626.39038
  181800    261.04047       0.0909   -1.4072238    7.5372184   -102.61158    1.8558171    8.1955873    9.1644073    619.26298
  181900    309.87803      0.09095  -0.10151014    9.5238319   -102.58234    2.2030184     8.330077    9.1648273    629.45395
  182000    339.65958        0.091    1.2043777    9.9838741   -102.58124    2.4147446    8.3417245    9.1652474    630.36297
  182100    355.66566      0.09105  -0.43756471     9.034915   -102.85626    2.5285367    8.2444947    9.1656674    623.04412
  182200    299.29684       0.0911  -0.61549209    8.9795071   -103.13208    2.1277934    8.3378276    9.1660875    630.12625
  182300      287.094      0.09115    0.6347328     8.475077   -103.17611    2.0410397     8.245738    9.1665075    623.19519
  182400    267.72486       0.0912  -0.43109643    9.3154942   -102.96741    1.9033385    8.3076048    9.1669276    627.89972
  182500    322.12215      0.09125   0.69465058    10.164201   -102.97356    2.2900656    8.2736166    9.1673477     625.3595
  182600    343.75875       0.0913  -0.87689954    8.2562471   -102.73155    2.4438868    8.2670214    9.1677677    624.88964
  182700    353.32905      0.09135   0.57210947    7.8795434   -102.79289     2.511925    8.3256972    9.1681878    629.35367
  182800    260.81508       0.0914    0.2113894    7.7260613   -102.83171    1.8542148    8.2496505    9.1686078    623.63374
  182900    279.34964      0.09145  -0.85101334    8.4120287   -102.97944    1.9859826    8.2843842    9.1690279    626.28814
  183000     303.0833       0.0915    1.0030763    7.7682275    -103.0404    2.1547125    8.3175107     9.169448    628.82127
  183100    335.37522      0.09155  -0.55038483    8.8403749   -103.06749    2.3842857    8.2862518     9.169868    626.48672
  183200    327.85262       0.0916  -0.25103198    8.6258901   -102.90116    2.3308053    8.2839986    9.1702881    626.34506
  183300    296.83233      0.09165   0.32113902    7.0436732    -102.8125    2.1102724    8.3134819    9.1707081    628.60306
  183400    302.11422       0.0917   0.82190405    6.6785062   -103.27012     2.147823    8.2769625    9.1711282    625.87039
  183500    241.19455      0.09175   -1.0841423    7.9927703   -103.05784    1.7147264    8.1817191    9.1715482    618.69681
  183600    296.16605       0.0918   0.13967989    8.6194126   -103.19588    2.1055357    8.2798647    9.1719683    626.14721
  183700    300.43944      0.09185    0.2972136    8.5127034   -102.59281    2.1359165    8.2838106    9.1723884    626.47429
  183800    348.49734       0.0919   0.11776933    7.5934982   -103.04644    2.4775749    8.2406057    9.1728084    623.23541
  183900      288.826      0.09195  -0.43898694    7.0965886    -103.1134     2.053353    8.2118699    9.1732285    621.09056
  184000    273.41168        0.092   0.42061486    6.2323147   -103.10952    1.9437679    8.2494776    9.1736485    623.96353
  184100    275.33253      0.09205  -0.24206221    6.0492557   -102.80122    1.9574238    8.2354502    9.1740686    622.93106
  184200      363.731       0.0921  -0.30689228     5.756924   -103.07732    2.5858757    8.2731548    9.1744886     625.8117
  184300    287.75562      0.09215   0.57270081    7.0220785   -102.85781    2.0457433    8.2840999    9.1749087    626.66832
  184400    281.08834       0.0922 -0.0029073594    8.5833487   -102.98346    1.9983436    8.2427562    9.1753288    623.56934
  184500    284.92878      0.09225  -0.33426715    7.9235373   -103.08501    2.0256465    8.2234445    9.1757488    622.13688
  184600    290.09227       0.0923  0.084187915    7.4737314     -103.048    2.0623553    8.3108789    9.1761689    628.78043
  184700    352.33913      0.09235   0.31197463    7.2071976   -103.04931    2.5048874    8.2267797    9.1765889    622.44618
  184800    319.58881       0.0924  -0.58194295     6.885622   -102.74044    2.2720553    8.3037171     9.177009     628.2961
  184900    283.07382      0.09245    1.1248228    7.9812321   -102.74418    2.0124589    8.2573547    9.1774291    624.81671
  185000    293.06738       0.0925   -1.4851563    9.0178811   -103.29818    2.0835062    8.1959749    9.1778491    620.20062
  185100    283.66794      0.09255   0.58925668    9.6607487   -103.30061    2.0166828    8.3653536    9.1782692    633.04671
  185200    300.69697       0.0926    1.0982932    8.7760865   -103.20092    2.1377473    8.1857993    9.1786892    619.48732
  185300    252.04583      0.09265   -1.9465097    7.8577334   -102.70903    1.7918714    8.2085125    9.1791093    621.23464
  185400    317.43447       0.0927   0.72830865    9.3149629   -102.92609    2.2567394    8.4075195    9.1795293    636.32496
  185500    330.85455      0.09275    1.1581791    10.175579   -102.91372    2.3521469    8.2259271    9.1799494    622.60959
  185600    287.30064       0.0928   -1.8923849    9.5340835   -103.05532    2.0425087    8.2390545    9.1803695    623.63172
  185700    224.92182      0.09285    1.1179839    8.6765668   -102.78918    1.5990385    8.4036658    9.1807895    636.12061
  185800     293.6188       0.0929   0.31444869    10.014332   -102.97978    2.0874265    8.2271318    9.1812096    622.78625
  185900    293.65383      0.09295  -0.84917703    9.8473515   -102.79031    2.0876755    8.2500688    9.1816296    624.55113
  186000    330.50078        0.093 -0.0049921304    8.9702854   -102.97582    2.3496318    8.3594683    9.1820497     632.8619
  186100    292.48204      0.09305     1.026016    8.8953523    -102.9129    2.0793449    8.2938841    9.1824698    627.92551
  186200    262.55825       0.0931  -0.79424164    9.0099672   -103.18865    1.8666074    8.2482541    9.1828898    624.49945
  186300    209.49783      0.09315   0.12050741    9.8415895   -102.90335    1.4893846    8.2938531    9.1833099    627.98061
  186400    324.51303       0.0932   0.33521405    7.9549969    -103.2842    2.3070631    8.2693358    9.1837299    626.15289
  186500    318.23205      0.09325   -0.5091844     7.017237   -103.17678    2.2624096    8.2515041      9.18415    624.83126
  186600    288.47135       0.0933   0.81098751    6.6603617   -102.88673    2.0508317    8.2448919      9.18457    624.35912
  186700    325.91995      0.09335   -1.1476011    8.0546391   -103.09387    2.3170653    8.2063797    9.1849901    621.47113
  186800      228.278       0.0934   0.38827546    8.7262526   -102.78461    1.6228986    8.3811226    9.1854102    634.73348
  186900    268.21412      0.09345   0.88634551    8.5965607   -103.18157    1.9068168    8.2227594    9.1858302    622.76853
  187000    316.24922       0.0935   -1.2292145    8.6024764   -103.07028    2.2483131    8.2357445    9.1862503    623.78051
  187100    331.60047      0.09355   0.61328851    8.8760519   -102.97017    2.3574499    8.3510001    9.1866703    632.53896
  187200    312.27549       0.0936   0.49216434     9.350246    -102.9368    2.2200627    8.1966925    9.1870904    620.87946
  187300    295.83759      0.09365   -0.8693443    9.3030637   -102.87703    2.1032006     8.265093    9.1875104    626.08926
  187400    313.97931       0.0937   0.71081307    7.2842394   -102.98279    2.2321756    8.2333951    9.1879305    623.71663
  187500    296.15319      0.09375  -0.54944379    7.7658972   -102.75497    2.1054442     8.212117    9.1883506    622.13315
  187600    312.75404       0.0938  -0.12941268    8.9045936   -102.68507    2.2234648    8.3040513    9.1887706    629.12667
  187700    356.18997      0.09385   0.46389881    9.0458463   -103.00291    2.5322642    8.2635337    9.1891907    626.08562
  187800    274.79289       0.0939  -0.52637805    10.354914   -103.08635    1.9535873    8.3087754    9.1896107    629.54212
  187900    309.02104      0.09395   0.52699846    10.237288    -103.2941    2.1969257    8.2934563    9.1900308    628.41015
  188000     294.5131        0.094 -0.063050724    10.113636   -102.94801    2.0937843    8.2667242    9.1904509    626.41324
  188100    312.93905      0.09405  -0.55498863    9.1607353   -102.78572    2.2247801    8.3536379    9.1908709    633.02808
  188200    306.74072       0.0941    1.5100599    8.8700152   -102.35213    2.1807143    8.2086049     9.191291    622.06609
  188300    370.58174      0.09415   -2.1240031    7.9959001   -102.29581    2.6345797    8.2891835     9.191711    628.20122
  188400    344.62734       0.0942    1.4036136    7.3729849   -102.48857    2.4500619    8.3390828    9.1921311    632.01176
  188500    343.53467      0.09425   0.24461621     8.184322   -102.86249    2.4422938    8.2065566    9.1925511    621.99613
  188600     296.4646       0.0943   -1.2131727    7.9410092   -103.08437    2.1076582     8.268259    9.1929712    626.70136
  188700    284.47069      0.09435    1.0535836    7.5449847   -103.06614    2.0223898    8.2557922    9.1933913    625.78501
  188800    330.19491       0.0944   -0.5174896    7.5586148   -103.15937    2.3474573     8.232008    9.1938113    624.01069
  188900    278.53444      0.09445   0.25387656    7.8106119   -102.90928    1.9801871    8.2587655    9.1942314    626.06759
  189000    262.25703       0.0945  -0.24431554    8.4283854   -103.10088     1.864466    8.2193984    9.1946514    623.11178
  189100    235.48221      0.09455  0.022579945    8.6695427   -103.11072    1.6741156    8.2835779    9.1950715    628.00591
  189200    300.31039       0.0946     0.299928    8.8934708   -103.17317     2.134999    8.2443467    9.1954916    625.06022
  189300    303.30917      0.09465  -0.70388116    9.2334948   -102.79647    2.1563183    8.2624188    9.1959116      626.459
  189400    303.52752       0.0947   0.83610472    8.1367519    -102.6268    2.1578706    8.3685764    9.1963317    634.53688
  189500    346.38856      0.09475   0.11248041    7.8060566    -102.8761    2.4625829    8.1926683    9.1967517    621.22724
  189600    252.82654       0.0948   -1.4344014    7.9280447   -102.59008    1.7974218    8.2991449    9.1971718    629.32981
  189700    251.06747      0.09485    1.6555257    8.5789433   -103.06079     1.784916    8.3341693    9.1975918     632.0146
  189800     258.7044       0.0949  -0.52048697    8.4359636   -103.26589    1.8392093    8.2179795    9.1980119    623.23191
  189900    256.82213      0.09495  -0.25828897    8.0983537   -103.11518    1.8258276    8.2209798     9.198432    623.48791
  190000    293.31572        0.095  -0.27427501    7.3635067   -103.02944    2.0852718    8.3113244     9.198852    630.36853
  190100    344.87836      0.09505    1.4415957    6.4747524    -103.0711    2.4518465    8.2355241    9.1992721    624.64802
  190200    297.99863       0.0951   -1.6780906    6.1607893    -102.8398     2.118564    8.2119245    9.1996921    622.88648
  190300    299.47286      0.09515   0.97111712    7.1706857   -103.04603    2.1290448    8.2995731    9.2001122     629.5635
  190400     271.8612       0.0952  -0.17270021    7.9934236    -103.2063     1.932745    8.2020236    9.2005323    622.19229
  190500    232.43107      0.09525  -0.93749533    8.8921916   -103.18873    1.6524241    8.3111234    9.2009523    630.49721
  190600    270.61371       0.0953    1.1588192     10.43128    -102.9292    1.9238762    8.3388907    9.2013724    632.63257
  190700    320.50995      0.09535   0.30218124    9.7798662    -102.9199     2.278604    8.2016109    9.2017924     622.2462
  190800    299.76611       0.0954   -1.3031623     8.240362   -102.56619    2.1311296    8.2591893    9.2022125    626.64321
  190900    277.62105      0.09545   0.65703577    8.8083928   -102.36553    1.9736935    8.3353142    9.2026325    632.44784
  191000    258.41867       0.0955   0.54717822    8.8568824   -102.60823    1.8371779     8.224816    9.2030526     624.0922
  191100    253.31165      0.09555   -1.3353159    9.8059421   -102.96673    1.8008705    8.3133953    9.2034727    630.84232
  191200     290.3565       0.0956     1.781005    9.7980781   -103.10122    2.0642338    8.2859442    9.2038927    628.78795
  191300    308.23126      0.09565   -1.5964248     9.629375   -103.03348     2.191311    8.2223904    9.2043128    623.99358
  191400    284.57186       0.0957   0.20050206    10.730254   -102.81952     2.023109    8.4117564    9.2047328    638.39361
  191500    291.74167      0.09575    1.3192608    10.193226   -102.68134    2.0740814    8.2620821    9.2051529    627.06299
  191600    319.60254       0.0958   -1.7254614    10.667862   -102.71319    2.2721529     8.294947    9.2055729    629.58605
  191700    291.56739      0.09585    1.1881006    10.559647   -102.78871    2.0728424    8.3669741     9.205993    635.08188
  191800    259.37243       0.0959 -0.0046747385    9.3648975   -102.76349    1.8439585    8.1980432    9.2064131    622.28785
  191900    301.15556      0.09595   -1.0216071    9.0989245   -102.98107    2.1410076    8.2815486    9.2068331    628.65516
  192000    276.08009        0.096    1.3048876    9.3675189   -102.71866    1.9627384     8.284394    9.2072532    628.89985
  192100    311.95867      0.09605    -1.017984    8.4471171   -102.84286    2.2178103    8.2060042    9.2076732     622.9774
  192200    283.93966       0.0961  -0.19594003    8.9028189   -102.64601    2.0186145    8.3848845    9.2080933    636.58654
  192300    356.27261      0.09615    1.4455351    9.5040822   -103.09105    2.5328517    8.2959099    9.2085134    629.86026
  192400    297.53206       0.0962  -0.99434739    9.0777342     -102.628     2.115247    8.2105093    9.2089334    623.40472
  192500    303.89233      0.09625  -0.71763448    9.1269207   -102.66056    2.1604641    8.3474659    9.2093535    633.83243
  192600    321.58773       0.0963    2.1594823     8.805396   -102.78387    2.2862662    8.2633414    9.2097735    627.47338
  192700     294.4111      0.09635    -2.150212    7.7708621   -102.76504    2.0930592    8.1682737    9.2101936    620.28274
  192800    287.84752       0.0964   0.87339416    8.0267257   -102.98807    2.0463967    8.3291431    9.2106136     632.5277
  192900    285.03575      0.09645   0.15243562    9.6312699    -103.1654    2.0264069    8.2402945    9.2110337    625.80894
  193000    241.89534       0.0965  -0.72156784    10.283613   -102.79863    1.7197085     8.247195    9.2114538    626.36157
  193100    327.88387      0.09655    1.0963217    10.579598   -102.81386    2.3310274    8.2625506    9.2118738    627.55641
  193200    336.91195       0.0966    -1.268744    9.9183884   -102.74991    2.3952108    8.2481263    9.2122939    626.48942
  193300    252.93373      0.09665   0.68867973     9.420192   -102.42107    1.7981838    8.3320889    9.2127139     632.8957
  193400    295.70569       0.0967   0.52794253    8.6063944   -102.65761    2.1022628    8.2629671     9.213134     627.6739
  193500    295.20544      0.09675    -1.271388    8.7387004   -102.34511    2.0987064    8.2699927    9.2135541    628.23622
  193600    342.72774       0.0968   0.89769824    8.6658382   -102.61106    2.4365571    8.3607539    9.2139741    635.15992
  193700     282.8027      0.09685    0.3939042    7.8713554   -102.72946    2.0105315    8.1971802    9.2143942    622.76175
  193800    262.25862       0.0969   -1.2939664    7.8801796   -102.83593    1.8644773    8.2892157    9.2148142    629.78264
  193900     311.8502      0.09695    1.2521307    8.2247388   -102.86801    2.2170391    8.3367848    9.2152343    633.42563
  194000    309.94538        0.097  -0.57218289    8.1224784   -102.64771    2.2034972    8.2286415    9.2156543    625.23745
  194100    334.60969      0.09705 -0.021326563    7.1482792   -102.86126    2.3788433    8.2807418    9.2160744    629.22486
  194200    366.59114       0.0971   0.24417848    7.5091641   -103.16667    2.6062093    8.3078246    9.2164945    631.31157
  194300    326.24899      0.09715   0.19140276    8.3196659   -102.97856    2.3194045    8.2204989    9.2169145    624.70416
  194400    256.38013       0.0972  -0.80025767    7.3886571   -102.62149    1.8226853    8.2366604    9.2173346    625.96085
  194500    305.48643      0.09725   0.49160898    7.4025485   -102.80498    2.1717971    8.3140092    9.2177546    631.86792
  194600    390.45762       0.0973   0.28552099    6.8749138    -102.8388    2.7758835    8.2378999    9.2181747    626.11211
  194700      280.862      0.09735  -0.47144987    6.0738645   -102.18651    1.9967345    8.2485139    9.2185947    626.94738
  194800    273.83649       0.0974   0.74758962    5.3594095   -102.52484    1.9467879    8.2412568    9.2190148    626.42433
  194900    329.61213      0.09745   -1.3239395    6.0359298   -103.04018    2.3433141    8.2156969    9.2194349    624.50996
  195000    250.08222       0.0975    1.1413515    7.8382821   -102.69316    1.7779115    8.3372248    9.2198549    633.77668
  195100    310.50778      0.09755    -0.181902    7.3414722   -103.10212    2.2074954    8.1707395     9.220275    621.14915
  195200    259.96659       0.0976  -0.82846563    7.0321318   -102.75537    1.8481826     8.295159     9.220695     630.6364
  195300    284.81964      0.09765    1.5213496    8.1502336   -102.74711    2.0248705    8.2603525    9.2211151    628.01886
  195400    287.98651       0.0977   -1.6344234    8.0785459   -102.73985    2.0473848    8.2077156    9.2215352     624.0454
  195500      273.514      0.09775    1.1042446    7.0208055   -102.61012    1.9444953    8.3284735    9.2219552    633.25565
  195600    310.58559       0.0978  -0.25539732    6.5168376    -102.8416    2.2080486    8.2099365    9.2223753    624.27112
  195700    279.41469      0.09785  -0.61731849    6.1371743   -102.85364    1.9864451    8.2775907    9.2227953    629.44412
  195800     332.0983       0.0979    1.1941011    6.3456649   -103.22525    2.3609891    8.2731401    9.2232154    629.13434
  195900    331.90608      0.09795   -1.2947497    6.0592363   -103.03012    2.3596225    8.2240974    9.2236354    625.43335
  196000    341.90795        0.098    1.3428211    6.5976354   -102.69508    2.4307289    8.2913229    9.2240555    630.57449
  196100    304.54944      0.09805  -0.88322108    7.5143782   -102.27845    2.1651358    8.1812582    9.2244756    622.23214
  196200    290.68662       0.0981  -0.44037016    8.0500815   -102.59099    2.0665807    8.2780255    9.2248956    629.62053
  196300    282.55412      0.09815    1.2071587    7.5487682   -103.02983    2.0087643    8.2779079    9.2253157    629.64026
  196400    307.99512       0.0982  -0.79596063    5.1433749   -103.30743    2.1896322    8.2066404    9.2257357    624.24788
  196500    268.25887      0.09825 -0.020230794    6.3384138   -103.02026    1.9071349    8.3141039    9.2261558    632.45101
  196600    316.54458       0.0983   0.44388329    7.0797968   -102.91906    2.2504129    8.2712878    9.2265759    629.22265
  196700    327.89639      0.09835  -0.47592052    6.1801408   -102.62695    2.3311164    8.2666871    9.2269959    628.90129
  196800    269.81993       0.0984   0.24020715    7.8019109   -102.33052     1.918233    8.3256002     9.227416    633.41203
  196900    287.19477      0.09845   0.53353401    8.7352111   -102.66452     2.041756    8.1999175     9.227836    623.87849
  197000     312.3831       0.0985  -0.68065512    9.9728055   -103.03015    2.2208276    8.2772105    9.2282561    629.78788
  197100    314.58428      0.09855   0.16480985    10.268958   -103.22374    2.2364766    8.3077801    9.2286761     632.1426
  197200    295.32508       0.0986    0.3769904    8.6069701   -103.32832     2.099557    8.2345545    9.2290962    626.59935
  197300    248.02732      0.09865  -0.53864575    7.3210093   -102.94093    1.7633026    8.2519185    9.2295163    627.94923
  197400    271.42449       0.0987  -0.43738446    7.7694704   -102.59931    1.9296403    8.3129417    9.2299363    632.62172
  197500    319.63721      0.09875    1.7578344     7.982661   -102.67232    2.2723994    8.3080099    9.2303564    632.27518
  197600    364.16908       0.0988   -1.4744019    7.4049221   -103.02388    2.5889901    8.1963554    9.2307764    623.80618
  197700    302.39133      0.09885   0.66542575    5.8970831   -103.04645    2.1497931    8.3014427    9.2311965    631.83289
  197800     303.9562       0.0989   0.08624511    3.8653948   -103.15506    2.1609183    8.1731659    9.2316165     622.0979
  197900    278.04635      0.09895   -0.9744916    4.4145465   -102.81479    1.9767171    8.2142098    9.2320366    625.25039
  198000    288.25652        0.099   0.46204661    6.6852431   -102.60713    2.0493044    8.2967103    9.2324567     631.5589
  198100    318.63711      0.09905   0.30963427    6.8955857    -102.6663    2.2652893    8.2827983    9.2328767    630.52859
  198200    316.39121       0.0991   0.02798733    8.5726996   -102.66683    2.2493225    8.2646594    9.2332968    629.17639
  198300    261.03887      0.09915  -0.45985661    8.9927331   -102.34114    1.8558057     8.345181    9.2337168    635.33528
  198400    285.10953       0.0992    1.2960892    9.4512229   -102.60501    2.0269315     8.243859    9.2341369    627.64999
  198500    294.32411      0.09925   -1.5448147    8.1296174   -102.68642    2.0924408    8.2073095     9.234557     624.8957
  198600    319.58369       0.0993   0.76203933    7.8647522    -102.9412    2.2720189    8.2734901     9.234977    629.96327
  198700    286.67747      0.09935 -0.081598524    6.7132072   -103.01058    2.0380784     8.212507    9.2353971    625.34832
  198800    259.01444       0.0994  -0.14648609     7.932403   -103.05806    1.8414134    8.2495163    9.2358171    628.19499
  198900      251.332      0.09945  -0.58997814    7.9173571   -102.76627    1.7867966    8.2226382    9.2362372    626.17672
  199000    315.04043       0.0995   0.94561077    6.4926833   -102.67264    2.2397194    8.3082408    9.2366572    632.72437
  199100     293.2323      0.09955  -0.58079726     6.021018   -102.60123    2.0846787    8.2392541    9.2370773    627.49914
  199200    286.47193       0.0996   0.39091987    6.7281625   -102.65999    2.0366172    8.2752673    9.2374974    630.27056
  199300    291.81327      0.09965   0.12799155    8.2282376   -102.94761    2.0745904    8.2428201    9.2379174    627.82782
  199400    243.57047       0.0997  -0.33202493    7.8018108   -103.07699    1.7316175    8.2124691    9.2383375    625.54453
  199500    271.35409      0.09975   0.33738353    7.1579966    -103.2044    1.9291398    8.2709676    9.2387575    630.02901
  199600    341.45041       0.0998  -0.44129082    5.4032804   -103.25388    2.4274761    8.1837781    9.2391776    623.41582
  199700    323.33192      0.09985  -0.40379565    6.7911615   -102.96989    2.2986662    8.2862994    9.2395977    631.25429
  199800    306.88119       0.0999    1.1425586    7.9273556   -102.88437    2.1817129    8.3271693    9.2400177    634.39661
  199900    295.23899      0.09995  -0.65263779     6.854656   -102.72147    2.0989449    8.2125332    9.2404378    625.69163
  200000    316.57509          0.1   0.08942448    6.8156006   -102.51852    2.2506298    8.3103914    9.2408578    633.17598
  200100     341.7006      0.10005   0.41651684     6.063959   -102.32802    2.4292548    8.2911048    9.2412779    631.73523
  200200    291.30737       0.1001  -0.34986867    4.8463615   -102.45123    2.0709938    8.2030786    9.2416979    625.05654
  200300    268.24921      0.10015  -0.20354335    5.3183915    -102.7884    1.9070662    8.2862847     9.242118    631.42536
  200400    281.90811       0.1002   0.53767157    6.0851328   -102.95944    2.0041715    8.2365404    9.2425381    627.66331
  200500    291.96417      0.10025  -0.78251892    8.3976009   -102.82244    2.0756632    8.2477963    9.2429581    628.54962
  200600    303.47989       0.1003   0.66240279    9.1163706   -102.41066     2.157532     8.332917    9.2433782    635.06538
  200700    307.41808      0.10035  0.059093625     9.627682   -102.36139    2.1855298    8.2497144    9.2437982    628.75294
  200800    321.69469       0.1004 -0.088822522    8.8378755   -102.65093    2.2870266    8.2165631    9.2442183    626.25477
  200900    302.83563      0.10045  -0.46822595     8.481961   -102.68574    2.1529517    8.2805472    9.2446383    631.16022
  201000    301.43153       0.1005    1.1622969    7.9004103   -102.77999    2.1429696    8.2516433    9.2450584    628.98569
  201100    327.99255      0.10055   -1.5186174    6.9605019   -102.80403       2.3318    8.1731558    9.2454785    623.03125
  201200    355.93069       0.1006   0.31737701    8.1653011     -102.537    2.5304209    8.4121503    9.2458985    641.27869
  201300    313.47308      0.10065    1.5377891     9.047875   -101.81191    2.2285767    8.2642216    9.2463186    630.03034
  201400    334.27993       0.1007   -1.6914958    8.3306798   -101.79672     2.376499    8.1817127    9.2467386    623.76854
  201500    274.51954      0.10075    0.4027371    8.8888936   -102.16519     1.951644    8.3181625    9.2471587    634.20019
  201600    333.41183       0.1008   0.62971284    7.9347059   -102.73509    2.3703274    8.2172946    9.2475788     626.5382
  201700    343.14468      0.10085   -1.0887193    6.5720363   -103.15674    2.4395212    8.2335357    9.2479988    627.80504
  201800    296.39113       0.1009   0.84849782    6.8512854   -103.07429    2.1071358    8.3341938    9.2484189    635.50906
  201900    317.33537      0.10095    0.2692692    5.5378111   -102.98544    2.2560349    8.1412277    9.2488389    620.82297
  202000    342.45221        0.101   -1.8418695    4.5203117   -102.92017    2.4345982    8.1954249     9.249259    624.98426
  202100    287.54123      0.10105    1.7854898    4.2372532   -102.30256    2.0442192    8.3626581     9.249679    637.76644
  202200    369.67243       0.1011  0.079257394    3.9685507   -102.51256    2.6281152    8.1275875    9.2500991    619.86726
  202300    284.28028      0.10115   -1.7803521    3.7457605    -102.5622    2.0210361    8.2619811    9.2505192    630.14568
  202400    277.54545       0.1012    2.5734577    4.3753185   -102.99163    1.9731561    8.2721634    9.2509392    630.95094
  202500    309.60931      0.10125   -1.9343051    2.6333756   -103.25036    2.2011079    8.0710006    9.2513593     615.6354
  202600    320.67326       0.1013 -0.037751679    3.7621811   -103.16944     2.279765    8.2569972    9.2517793    629.85135
  202700    337.25616      0.10135    1.2649572    2.9607693    -102.9184    2.3976579    8.1886905    9.2521994    624.66921
  202800    306.33361       0.1014   -1.1655918    4.1056855   -102.51567      2.17782    8.2200418    9.2526195     627.0893
  202900    287.98882      0.10145   0.37948459    5.1354582   -102.67654    2.0474012    8.2677481    9.2530395    630.75734
  203000    284.57845       0.1015   0.46467663    5.0922521   -103.12259    2.0231558    8.2223036    9.2534596     627.3188
  203100    272.85918      0.10155  -0.77915439    5.8861561   -103.05634      1.93984    8.2544324    9.2538796    629.79865
  203200    299.31427       0.1016   0.49826004    6.7555032   -102.81381    2.1279174    8.2921415    9.2542997     632.7045
  203300    332.82114      0.10165   0.35189425    7.3805514   -102.93544     2.366128    8.2198883    9.2547197    627.21993
  203400    263.39651       0.1017   -1.3139581    6.6815009   -102.55612    1.8725669    8.2974198    9.2551398    633.16471
  203500    304.84933      0.10175    1.8062533     6.596782   -102.60533    2.1672678    8.3200979    9.2555599    634.92407
  203600    286.73594       0.1018   -1.8304205    6.3799968   -102.12068    2.0384941    8.2021465    9.2559799    625.95136
  203700    308.20021      0.10185    1.1329825    5.4873828   -102.24023    2.1910902    8.4437015       9.2564      644.415
  203800     327.0799       0.1019   0.86925245    6.8766091   -102.85888    2.3253118    8.1733114      9.25682    623.80741
  203900    305.74682      0.10195   -2.7737677    7.5552209   -103.20105    2.1736483    8.2781451    9.2572401    631.83725
  204000     282.4042        0.102    2.6644842    6.2366356   -102.96448    2.0076984     8.362487    9.2576601    638.30368
  204100    292.83095      0.10205  -0.91944039    5.9207958   -102.64655    2.0818254    8.1801366    9.2580802    624.41331
  204200    345.53588       0.1021  -0.60960907    6.7018513   -102.73614     2.456521    8.2759819    9.2585003    631.75812
  204300    280.68186      0.10215   0.31957848    7.5103935   -102.46601    1.9954538    8.3085622    9.2589203    634.27396
  204400    288.88994       0.1022   0.59995043    7.3553725   -102.74805    2.0538075    8.2392774    9.2593404    629.01331
  204500    268.95157      0.10225   -1.3157752    7.1125459   -102.70418    1.9120596    8.2955641    9.2597604    633.33915
  204600    262.33288       0.1023    1.8626387    9.1172867   -102.57919    1.8650053    8.3330096    9.2601805    636.22685
  204700     305.1419      0.10235  -0.84568058    7.8858231   -102.32114    2.1693477    8.1465298    9.2606006    622.01729
  204800    302.47162       0.1024  -0.73409293    8.2115418   -102.16721    2.1503639    8.2992879    9.2610206    633.70968
  204900    320.31956      0.10245    1.5002437    8.8313227   -102.19525    2.2772504    8.2789569    9.2614407    632.18593
  205000    320.06263       0.1025   -1.3475098    9.1453226   -102.59853    2.2754238    8.1924944    9.2618607    625.61199
  205100    264.62496      0.10255   0.53774117    8.2771122   -102.72598    1.8813003    8.2751355    9.2622808    631.95145
  205200    271.77011       0.1026  -0.19761151    7.3854287   -102.69642    1.9320974    8.1990694    9.2627008    626.17087
  205300    299.44634      0.10265    -0.489827    6.5431371   -102.63267    2.1288563    8.3187409    9.2631209    635.33911
  205400    371.65514       0.1027   0.86074324    6.3256617   -102.74643    2.6422109    8.2850463     9.263541     632.7944
  205500    331.38492      0.10275  -0.41379999    7.8687033   -102.25756    2.3559175    8.2661256     9.263961    631.37791
  205600    338.29167       0.1028   0.64719269    8.9020573   -102.57096    2.4050196    8.2532991    9.2643811    630.42678
  205700    285.61407      0.10285  -0.39162876    7.9711032   -102.75506    2.0305184    8.2432091    9.2648011    629.68461
  205800    310.49284       0.1029  -0.15330778    7.2893512   -102.99809    2.2073893    8.1902811    9.2652212    625.66989
  205900    278.13667      0.10295  -0.18774878    6.4383422   -102.54478    1.9773592     8.254653    9.2656413    630.61597
  206000    323.03407        0.103   0.76175215     7.609454   -102.42031    2.2965487    8.2149607    9.2660613    627.61212
  206100    325.17491      0.10305  -0.69689219    7.6634247   -102.47294    2.3117686    8.1832915    9.2664814    625.22098
  206200    344.61022       0.1031  -0.11864483    8.6993709   -102.86123    2.4499402    8.3068281    9.2669014     634.6882
  206300    268.51971      0.10315   0.62851924    9.0832868   -102.88737    1.9089893    8.2274211    9.2673215    628.64956
  206400     240.3847       0.1032  -0.53215849    9.5020614   -103.05108    1.7089689    8.2458285    9.2677415    630.08461
  206500    263.21063      0.10325   0.38315862    8.9424473   -102.85725    1.8712455    8.2595991    9.2681616    631.16546
  206600      292.528       0.1033 -0.026531939    10.008621   -102.71232    2.0796716    8.2280007    9.2685817    628.77934
  206700    363.13506      0.10335  -0.30054405    7.4717904   -102.84718     2.581639    8.2331383    9.2690017    629.20046
  206800     280.6458       0.1034   0.20147498    7.7316977   -102.30003    1.9951974    8.2992927    9.2694218    634.28492
  206900    268.83808      0.10345   0.76076833    7.5003303   -102.40961    1.9112527    8.1481986    9.2698418    622.76556
  207000    281.93085       0.1035   -2.0115987    6.5259098   -102.71938    2.0043332     8.222524    9.2702619    628.47472
  207100     257.0014      0.10355    2.1217802    6.7786791   -102.78129    1.8271021    8.3330349     9.270682    636.95029
  207200    250.27266       0.1036  -0.68078643    8.5040829   -102.79528    1.7792654    8.1386413     9.271102    622.11967
  207300    276.38412      0.10365  -0.90036838    8.4360377   -102.71478    1.9648998     8.239461    9.2715221    629.85488
  207400    284.41594       0.1037   0.81145942     8.576249   -102.24394    2.0220005    8.3270043    9.2719421    636.57585
  207500    339.92154      0.10375  -0.14694091    8.6790567    -102.4176    2.4166069    8.2510994    9.2723622    630.80172
  207600    253.64541       0.1038  -0.21017302    7.2285018   -102.21792    1.8032433    8.2716919    9.2727822    632.40467
  207700    259.27254      0.10385   0.68094316    5.8282275   -102.38948    1.8432483    8.2747698    9.2732023    632.66865
  207800    319.60828       0.1039  -0.74786668    6.2863877   -102.66668    2.2721937    8.2373063    9.2736224    629.83281
  207900    299.16376      0.10395   0.41799204    7.3465503   -102.45442    2.1268473    8.3035624    9.2740424    634.92758
  208000    340.53055        0.104    0.5262398    7.4930424   -102.94547    2.4209365    8.2576455    9.2744625    631.44517
  208100    292.08452      0.10405  -0.97478777    7.4469407   -102.94224    2.0765188     8.197653    9.2748825    626.88606
  208200    294.20493       0.1041   0.14152003    7.2309412   -102.98573    2.0915934    8.2945386    9.2753026    634.32376
  208300    280.61256      0.10415   0.81297509    6.4956551   -102.67895    1.9949611    8.2337239    9.2757226    629.70148
  208400    310.19589       0.1042     -1.10346    6.4911914   -102.35585    2.2052781    8.2466291    9.2761427    630.71701
  208500    309.31391      0.10425   0.36797351    6.6337371   -102.16018    2.1990078    8.3426195    9.2765628    638.08742
  208600     342.9019       0.1043    1.2233715       6.3536   -102.64448    2.4377952    8.2232352    9.2769828    628.98477
  208700    320.60408      0.10435   -1.8584182    5.9586211   -102.75409    2.2792731    8.2294057    9.2774029    629.48524
  208800    281.62887       0.1044    1.0679975    7.1347996   -102.61043    2.0021864    8.3351629    9.2778229     637.6037
  208900    295.05112      0.10445  0.034677351    7.6223735   -102.70125    2.0976093    8.1870215     9.278243    626.29989
  209000    311.36129       0.1045  -0.92801328    6.4309188   -102.83383    2.2135633     8.291179    9.2786631    634.29656
  209100    283.05085      0.10455    1.3360915    7.7290454   -102.44765    2.0122956    8.3075807    9.2790831     635.5801
  209200    326.39044       0.1046  -0.70734314    6.2286692   -102.28467    2.3204102    8.1919257    9.2795032    626.76017
  209300    351.19636      0.10465    -0.550011    5.3044738   -102.48026    2.4967631     8.233632    9.2799232    629.97962
  209400    257.71837       0.1047   0.95499834    6.1797322   -102.47021    1.8321993    8.3381985    9.2803433    638.00919
  209500    334.82867      0.10475  -0.15247261    6.1861756   -103.10641    2.3804001    8.1748816    9.2807633    625.54107
  209600    248.20472       0.1048   -1.2009712    6.6523291   -102.59354    1.7645638    8.3399982    9.2811834    638.20466
  209700    328.37125      0.10485    2.1217618    7.6068664   -102.69342    2.3344924    8.2907757    9.2816035     634.4667
  209800    334.00551       0.1049     -1.59457    6.8823839    -102.4371    2.3745481    8.2050439    9.2820235    627.93434
  209900    274.20304      0.10495   0.41891728    7.0716798   -102.22961    1.9493939    8.3073018    9.2824436    635.78894
  210000    281.82128        0.105   0.32156344    7.5304502   -102.21998    2.0035543    8.2615931    9.2828636    632.31929
  210100    406.05496      0.10505  -0.78724358     6.266913   -102.53327    2.8867697    8.2488602    9.2832837    631.37332
  210200    294.77248       0.1051   0.59337618    6.8321376   -101.93495    2.0956283    8.3284242    9.2837038    637.49205
  210300    320.66831      0.10515   0.35540831    7.0565284   -102.28891    2.2797298    8.2529128    9.2841238    631.74068
  210400    300.55855       0.1052   -1.1440935    7.7634466   -102.62872    2.1367633    8.2837424    9.2845439     634.1293
  210500    277.25555      0.10525    1.3800299    7.2447044   -102.78033    1.9710951    8.2952234    9.2849639    635.03691
  210600    272.59089       0.1053  -0.99515174    5.1956715   -102.75775    1.9379326    8.2083298     9.285384    628.41324
  210700    310.42114      0.10535  0.017877167    4.3258699   -102.81828    2.2068795    8.3359926     9.285804    638.21572
  210800    345.91453       0.1054   0.41805279    6.0543729   -102.39133    2.4592129    8.3356348    9.2862241     638.2172
  210900    345.63031      0.10545   0.45300346    5.2966264   -102.43547    2.4571923    8.2263626    9.2866442    629.87927
  211000    251.38071       0.1055   -1.3876895    7.0133777   -102.21916    1.7871429    8.3165151    9.2870642     636.8109
  211100    307.07753      0.10555    1.5589337     7.347162   -102.55674    2.1831088    8.3156838    9.2874843    636.77605
  211200    290.06044       0.1056   -0.8465774    7.7361899   -102.38948     2.062129    8.2374063    9.2879043    630.81046
  211300    260.18801      0.10565  -0.81344916    7.8022318   -102.53709    1.8497567    8.3126387    9.2883244    636.60045
  211400    269.13264       0.1057     2.246963    7.4449692   -103.14456    1.9133468    8.3056634    9.2887444    636.09503
  211500    228.81819      0.10575   -1.8789805    6.0771629   -102.83978     1.626739    8.1739066    9.2891645    626.03265
  211600    264.97578       0.1058   0.22076105    6.2853719    -102.6375    1.8837944    8.3310206    9.2895846    638.09473
  211700    292.93318      0.10585   0.95341784    7.1329087   -102.68545    2.0825522    8.2463752    9.2900046    631.64008
  211800    281.35741       0.1059      -1.1547    6.4891108   -102.56875    2.0002565    8.2732884    9.2904247    633.73018
  211900     279.6919      0.10595   0.91658849    5.5878519   -102.41126    1.9884159    8.3072866    9.2908447     636.3632
  212000    329.95343        0.106  -0.22059891    5.8058648   -102.52634    2.3457406    8.2271264    9.2912648    630.25118
  212100    274.09625      0.10605  -0.42765693    5.0969732    -102.3804    1.9486347    8.2741384    9.2916849    633.88126
  212200    246.92559       0.1061   0.54256621    5.0893272   -102.46327    1.7554701    8.2669084    9.2921049      633.356
  212300    322.09879      0.10615  -0.68002337    6.3566339   -103.05433    2.2898995    8.2118373     9.292525    629.16526
  212400    216.82588       0.1062   0.85843201    8.2837705   -102.38012    1.5414819    8.3141264     9.292945    637.03112
  212500    312.32586      0.10625  -0.86219358    8.0579706   -102.52766    2.2204207    8.2431981    9.2933651    631.62512
  212600    263.50622       0.1063   0.61249421    6.9129931    -101.9581    1.8733469    8.2761638    9.2937851    634.17974
  212700    322.89795      0.10635    0.3460697    6.2401033   -102.44104     2.295581    8.1865273    9.2942052     627.3395
  212800    305.08953       0.1064   -0.8111739    5.5551459   -102.89334    2.1689755     8.195282    9.2946253    628.03876
  212900    276.24141      0.10645   0.42368272    5.8733506   -102.86383    1.9638853    8.2272059    9.2950453    630.51371
  213000     335.4195       0.1065  -0.25395921    6.4035713   -103.04808    2.3846005    8.1999595    9.2954654    628.45402
  213100    331.10382      0.10655 -0.012618631    5.8165164   -102.88941     2.353919    8.2485333    9.2958854    632.20533
  213200    279.01258       0.1066   0.28033933    6.8897078   -102.63517    1.9835864    8.2471103    9.2963055    632.12483
  213300    285.43373      0.10665   -0.2170139     7.647581   -102.59333    2.0292363    8.2211608    9.2967256    630.16432
  213400    362.74384       0.1067   0.48470315    6.8052722   -102.72797    2.5788577    8.2326855    9.2971456    631.07622
  213500    379.23298      0.10675  -0.53584464    5.8742916   -102.97816     2.696084    8.2010995    9.2975657    628.68341
  213600    256.38314       0.1068   0.22461488    7.0622171   -102.53528    1.8227067     8.189402    9.2979857    627.81505
  213700    330.14424      0.10685  -0.37297233    7.0793711   -102.90155    2.3470971    8.2590483    9.2984058    633.18288
  213800    291.79228       0.1069   0.95393846    6.8622294   -102.80441    2.0744412     8.222443    9.2988258    630.40499
  213900    260.21277      0.10695  -0.89151823    5.5142251   -102.66835    1.8499327    8.1603578    9.2992459    625.67326
  214000    304.92731        0.107   -0.3333861    5.9669088   -102.27625    2.1678222    8.3164651     9.299666    637.67116
  214100    318.82163      0.10705    1.4880472    6.7827276   -102.03207    2.2666012    8.2507638     9.300086    632.66205
  214200    295.72142       0.1071   -0.6922982    5.6268467   -102.13702    2.1023746    8.0831026    9.3005061    619.83391
  214300    297.43084      0.10715  -0.53532705    4.6163015   -102.49287    2.1145274     8.187585    9.3009261    627.87425
  214400     268.0656       0.1072  -0.27767099    5.2787907   -102.40547    1.9057609    8.2713118    9.3013462    634.32359
  214500    308.77037      0.10725     1.292228    7.1837931   -102.70926    2.1951437    8.2492336    9.3017662    632.65899
  214600    275.91827       0.1073   -1.2426711    6.3375245   -102.67523     1.961588    8.2597416    9.3021863    633.49349
  214700    257.76069      0.10735   0.19988518    6.9122676   -102.77571    1.8325001    8.3564303    9.3026064    640.93811
  214800    284.64863       0.1074    1.3508384    5.3718729   -102.98897    2.0236548    8.2613002    9.3030264    633.67025
  214900    348.02618      0.10745   -1.2166808    4.8700632   -102.89339    2.4742253    8.2413993    9.3034465    632.17232
  215000    319.25918       0.1075   0.66639196    5.1692807   -102.38344    2.2697119    8.1959268    9.3038665    628.71265
  215100    325.21491      0.10755   -1.2318346    6.2942353   -102.41979     2.312053    8.2681717    9.3042866    634.28323
  215200     296.2359       0.1076    1.2127037    6.7871944   -102.38129    2.1060323    8.3594985    9.3047067    641.31821
  215300    286.14541      0.10765  -0.15382294    6.9355085   -102.43616    2.0342959    8.2237665    9.3051267     630.9337
  215400    296.02739       0.1077    -1.098629    6.1240417   -102.71697    2.1045499    8.3025624    9.3055468    637.00774
  215500    309.92495      0.10775    1.6595369    7.0794007   -102.77421    2.2033519    8.3288248    9.3059668    639.05154
  215600    347.09924       0.1078  -0.98071853    6.4019326    -102.5914    2.4676354     8.189723    9.3063869    628.40695
  215700    306.52222      0.10785  -0.42663989    5.7667756   -102.11279    2.1791609     8.370614    9.3068069    642.31592
  215800    326.04338       0.1079    1.6468919     7.452729   -102.37524    2.3179428     8.244144     9.307227    632.63984
  215900    309.09353      0.10795   -1.9165773    6.2112735   -102.59326    2.1974411    8.1770828    9.3076471    627.52201
  216000    279.45636        0.108    1.2118234    3.8233935   -102.89932    1.9867414    8.3737318    9.3080671    642.64216
  216100    294.81492      0.10805   0.11601923    4.3994866    -103.1092      2.09593    8.1821586    9.3084872    627.96821
  216200    244.65535       0.1081   -1.1535532     5.953419   -102.68316    1.7393302     8.271912    9.3089072     634.8853
  216300    309.63765      0.10815    1.4037251    5.7415464     -102.528    2.2013094    8.2850109    9.3093273    635.91936
  216400    353.00533       0.1082   -1.2426495    6.2092445   -102.71191    2.5096236     8.170626    9.3097474    627.16799
  216500    321.05894      0.10825    0.1540026    5.2199119   -102.82522    2.2825069    8.3892044    9.3101674    643.97488
  216600    285.92161       0.1083    1.2170222    5.3032897   -102.83335    2.0327048    8.2367242    9.3105875    632.29867
  216700    278.34058      0.10835   -1.2746685    6.6624466   -102.78951    1.9788089    8.2548932    9.3110075    633.72202
  216800    299.74355       0.1084   0.44072945    7.1730855   -102.50999    2.1309692    8.2835291    9.3114276    635.94906
  216900    368.49455      0.10845   0.16169381    5.4715837   -102.56075    2.6197413     8.292687    9.3118476    636.68086
  217000    300.54102       0.1085   -0.3291749    5.1958524   -102.23192    2.1366387    8.2736414    9.3122677    635.24727
  217100    328.79914      0.10855   0.48847397    6.5594334   -102.80356    2.3375344    8.2471014    9.3126878     633.2381
  217200    288.62177       0.1086  -0.57098868    5.1706378   -103.01178     2.051901    8.2375441    9.3131078    632.53279
  217300    244.87326      0.10865   0.56445972    5.0411434   -102.79385    1.7408794    8.2954867    9.3135279    637.01073
  217400    251.72905       0.1087  -0.68469752    5.7848082   -102.49229    1.7896194    8.2306197    9.3139479     632.0581
  217500    348.85667      0.10875   0.43714444    5.4842001   -102.85148    2.4801295    8.2968527     9.314368     637.1731
  217600    322.62596       0.1088 -0.020085021    5.0068967   -102.67514    2.2936473    8.2747128     9.314788    635.50148
  217700    315.35924      0.10885   0.22708297    5.1982795    -102.6432     2.241986    8.2666787    9.3152081    634.91309
  217800    284.76624       0.1089 -0.056229011    5.8256199   -102.84583    2.0244909     8.234115    9.3156282    632.44059
  217900     252.3931      0.10895  -0.43505159    5.5009843      -102.87    1.7943403    8.2252877    9.3160482    631.79107
  218000    343.24521        0.109   0.06568552    5.6035898    -103.1788    2.4402359    8.2954116    9.3164683    637.20608
  218100    295.20069      0.10905  0.091648645    5.3582038   -102.43989    2.0986726    8.3059279    9.3168883    638.04265
  218200     285.9994       0.1091   0.14232333    6.0096556   -102.33741    2.0332578    8.2580413    9.3173084    634.39271
  218300    325.20158      0.10915  -0.15584606    6.0295612   -102.72886    2.3119582    8.3369572    9.3177285    640.48399
  218400    300.87245       0.1092   0.38825278    4.5042182   -102.89843    2.1389949    8.3286319    9.3181485    639.87325
  218500    273.04531      0.10925   0.16332571    4.8336655   -102.97484    1.9411632    8.2225184    9.3185686    631.74922
  218600    245.57058       0.1093  -0.83990537    5.2591232    -102.9484    1.7458369    8.2333273    9.3189886    632.60821
  218700    273.08719      0.10935   0.50839291    4.7638077   -103.13091    1.9414609    8.2802295    9.3194087    636.24062
  218800    269.61014       0.1094  -0.15268178    5.7152376   -102.69843    1.9167415    8.2636902    9.3198287    634.99838
  218900    340.29071      0.10945  -0.20827799    5.3252198    -102.7467    2.4192314    8.3542803    9.3202488    641.98844
  219000    287.81012       0.1095    1.0678291    4.8317706   -102.34638    2.0461308    8.3504992    9.3206689     641.7268
  219100    383.40807      0.10955  -0.80439128    4.3701733   -102.99235    2.7257661    8.2083084    9.3210889    630.82802
  219200     272.9419       0.1096  -0.34316111    5.3688492   -102.79086     1.940428    8.3487992     9.321509    641.65399
  219300    283.46293      0.10965    1.5609428    6.0162081   -103.02043    2.0152253    8.2313208     9.321929    632.65359
  219400    311.66703       0.1097   -2.2324969    6.3923674   -102.94608    2.2157369    8.1963042    9.3223491    629.99063
  219500    319.69021      0.10975    1.9039378    6.9673958   -102.70595    2.2727761    8.2876974    9.3227692    637.04406
  219600    305.86061       0.1098   -1.0813239    5.7126602   -102.54645    2.1744573    8.1739692    9.3231892    628.33052
  219700    286.68917      0.10985   0.27216143    6.2973592   -102.48641    2.0381616    8.2724075    9.3236093     635.9261
  219800     314.0308       0.1099  0.064193221      6.02712   -102.71639    2.2325417    8.1878963    9.3240293    629.45781
  219900    294.18655      0.10995  -0.14464036    6.1836277   -102.69524    2.0914628    8.1860832    9.3244494    629.34677
  220000    295.59278         0.11    0.2541318    5.3734662   -102.72687    2.1014601    8.1704021    9.3248694    628.16951
  220100    288.23647      0.11005  -0.48554354    5.9162094   -102.69532    2.0491618    8.2184141    9.3252895     631.8893
  220200    272.84869       0.1101   0.46367428    5.8622622   -102.49963    1.9397654    8.2088872    9.3257096    631.18524
  220300    343.50017      0.11015 -0.026056391    6.4784173   -102.63082    2.4420485     8.204971    9.3261296    630.91254
  220400    319.90862       0.1102  -0.44389757    5.6518341   -102.40155    2.2743289    8.2112138    9.3265497    631.42101
  220500    303.08575      0.11025   0.55204124     5.011036    -102.5601      2.15473    8.2396222    9.3269697    633.63408
  220600    274.19119       0.1103  -0.53606743    5.2469174   -102.85884    1.9493096    8.2352916    9.3273898    633.32957
  220700    272.38602      0.11035   0.57227128    5.4251784   -102.88144    1.9364761    8.2840975    9.3278099    637.11165
  220800    308.65782       0.1104  -0.55439124    4.9305156   -102.84422    2.1943435    8.2258966    9.3282299    632.66404
  220900    315.83455      0.11045   0.25483867    4.7066548   -102.45639    2.2453651    8.3982869      9.32865    645.95188
  221000    388.52772       0.1105    1.2340464    4.5071775   -102.38728    2.7621632    8.3074623      9.32907     638.9949
  221100    339.44789      0.11055   -1.2078217    4.4588671   -102.31516    2.4132396    8.1401038    9.3294901    626.15018
  221200    303.46031       0.1106  -0.76175112    3.3691474   -102.56095    2.1573928     8.337851    9.3299101     641.3901
  221300    261.42332      0.11065    2.1589501    2.7234646   -102.63684    1.8585389    8.2412489    9.3303302    633.98751
  221400    282.53185       0.1107   -2.3334942    3.5175647   -102.95763    2.0086059    8.1405475    9.3307503    626.26889
  221500    266.74583      0.11075   0.73258454    3.5585808   -102.99987    1.8963783    8.4443118    9.3311703    649.66734
  221600    284.23415       0.1108    1.3388837    4.3246949    -102.9626    2.0207081     8.222902    9.3315904    632.66155
  221700    319.73803      0.11085   -2.1966483    5.1052925   -102.70055    2.2731161    8.2560025    9.3320104    635.23686
  221800    284.68964       0.1109    1.2812712    5.5221082   -102.23952    2.0239463    8.3580057    9.3324305    643.11419
  221900    320.55856      0.11095   0.28444116    4.9613118   -102.44231    2.2789495    8.2353177    9.3328505    633.70237
  222000    275.83289        0.111  -0.69497088    5.7356976   -102.73906     1.960981    8.2615358    9.3332706    635.74845
  222100    316.27839      0.11105   0.86375212    5.6097708   -103.19762    2.2485205    8.2723329    9.3336907    636.60796
  222200    262.54127       0.1111  -0.81127664    5.1397256    -102.6798    1.8664867    8.1869589    9.3341107    630.06625
  222300    271.29442      0.11115  -0.43439061    5.0099692    -102.3834    1.9287156    8.3197413    9.3345308    640.31397
  222400    279.21731       0.1112    1.1603953    4.9097658    -102.2705    1.9850418    8.3338562    9.3349508    641.42916
  222500    354.91608      0.11125  -0.16982288    4.8623246   -102.37757    2.5232077    8.1811676    9.3353709    629.70556
  222600    315.18778       0.1113   -1.1945027    5.9303304   -101.65502     2.240767    8.3133105     9.335791    639.90541
  222700    323.83949      0.11135     1.552954    5.8463599   -102.01874    2.3022746    8.2961155     9.336211    638.61058
  222800    317.80404       0.1114  -0.94743492    6.4901253   -102.50602    2.2593668    8.2179666    9.3366311    632.62337
  222900    273.86998      0.11145   0.24556154    6.7960501   -102.58142    1.9470261    8.2853195    9.3370511    637.83692
  223000    289.20177       0.1115   0.65000825    5.7966338   -102.76461    2.0560244    8.2133114    9.3374712     632.3219
  223100    323.77639      0.11155    -1.564903    5.6813735   -102.69001    2.3018261    8.2317504    9.3378912    633.76998
  223200    351.21388       0.1116   0.90258655    4.2115235   -102.58702    2.4968877    8.3666832    9.3383113    644.18756
  223300    305.82077      0.11165   0.61186441    4.7338163   -102.50999    2.1741741    8.2387999    9.3387314     634.3698
  223400    273.26763       0.1117   -1.0136947    4.2587984   -102.50155    1.9427438    8.2503637    9.3391514    635.28876
  223500    337.40198      0.11175   0.57089699    4.3861434   -103.05772    2.3986946    8.3017114    9.3395715    639.27135
  223600    279.95927       0.1118 -0.026278942    4.2319743   -102.75621    1.9903167    8.2494719    9.3399915    635.27723
  223700    266.60066      0.11185  -0.19557411     5.845285    -102.6099    1.8953462    8.2348509    9.3404116    634.17981
  223800    291.00814       0.1119  -0.37506174    6.1845604   -102.27213    2.0688665    8.2808269    9.3408317    637.74918
  223900    304.74444      0.11195   0.96659238    4.3082778   -102.09946    2.1665221    8.3251661    9.3412517    641.19281
  224000    343.69623        0.112  -0.16082636    5.3673588   -102.39569    2.4434424    8.1956304    9.3416718    631.24453
  224100    312.33955      0.11205   -1.0453099    5.3520698   -102.76991    2.2205181    8.2239306    9.3420918    633.45276
  224200    288.58755       0.1121   0.66455195    5.6337496   -102.75779    2.0516578    8.3124189    9.3425119     640.2974
  224300    343.27061      0.11215    0.6904438    4.7509627   -103.08846    2.4404165    8.2197893    9.3429319    633.19071
  224400    277.06544       0.1122   -1.1512434    5.3117767   -102.63955    1.9697435     8.242145     9.343352    634.94136
  224500    342.72053      0.11225   0.33329958    5.1689123   -102.63873    2.4365058    8.2908067    9.3437721    638.71878
  224600    369.46394       0.1123   0.58582837    4.4575939   -102.39814    2.6266329    8.2992104    9.3441921    639.39494
  224700    360.15491      0.11235   -0.4498385    4.8524537     -102.706    2.5604522    8.1939578    9.3446122    631.31436
  224800    323.45406       0.1124 -0.052230888    5.0188604   -102.74131    2.2995346     8.255846    9.3450322     636.1112
  224900     290.0766      0.11245   0.54136494    5.6576051   -102.74803    2.0622439    8.2374646    9.3454523    634.72345
  225000    290.76743       0.1125   -1.0123235    6.3409064   -102.75633    2.0671552    8.2415775    9.3458723    635.06891
  225100    311.85811      0.11255   0.78053922    6.9080045   -102.45364    2.2170954    8.3038117    9.3462924    639.89323
  225200    289.20993       0.1126   0.11025299    5.4123607   -101.69867    2.0560825    8.1706412    9.3467125    629.65939
  225300    340.47215      0.11265   -0.2404093    3.6097985   -101.92639    2.4205214    8.2678066    9.3471325    637.17594
  225400    355.22572       0.1127  -0.19710595    4.3540169   -102.21833     2.525409    8.2451469    9.3475526    635.45818
  225500    356.52991      0.11275  -0.26515422    4.2625995   -102.78094    2.5346809    8.3271817    9.3479726    641.80949
  225600    359.21292       0.1128    1.2308227    5.7608525   -103.08477    2.5537553    8.2834855    9.3483927    638.47034
  225700    275.10882      0.11285  -0.89895016    5.7190613   -102.71217    1.9558333    8.1681671    9.3488128    629.61017
  225800    244.35835       0.1129 -0.078206268    5.1502749   -102.56679    1.7372188    8.2245899    9.3492328    633.98778
  225900    289.63358      0.11295   0.42363125    4.5800594   -102.60181    2.0590943     8.236929    9.3496529    634.96746
  226000    378.14296        0.113  -0.22987575    2.8334786   -102.65073    2.6883348    8.2110798    9.3500729    633.00324
  226100    347.38991      0.11305  -0.20841847    3.8737179   -102.55375    2.4697018    8.2198595     9.350493    633.70855
  226200     274.6837       0.1131   0.12260169    5.2785376   -102.30944     1.952811      8.30265     9.350913    640.12002
  226300    296.08812      0.11315   0.32477041    5.0681876   -102.57091    2.1049816    8.2025604    9.3513331    632.43169
  226400     311.8724       0.1132  -0.41572384    3.7108638   -102.84267     2.217197    8.2775332    9.3517532     638.2409
  226500    252.32553      0.11325   0.49465705    4.8347541   -102.98081    1.7938599    8.2205557    9.3521732     633.8761
  226600    205.06728       0.1133  -0.41651033    5.3571424   -102.87091    1.4578865    8.1756632    9.3525933    630.44281
  226700    258.07408      0.11335   0.16483739    5.3057648   -102.78798    1.8347281    8.2401836    9.3530133    635.44666
  226800    246.84373       0.1134   0.02668958    5.8188969   -102.32591    1.7548881    8.2700719    9.3534334    637.78016
  226900    320.25577      0.11345    0.3287614    6.4417764   -102.52393    2.2767969    8.2191798    9.3538535    633.88388
  227000    345.24415       0.1135  -0.77688876    5.9426915   -102.69767     2.454447    8.2260518    9.3542735    634.44235
  227100     273.1174      0.11355   0.98196663    4.7381062   -102.47878    1.9416757    8.2260603    9.3546936     634.4715
  227200    248.32057       0.1136   -1.3996479    4.7608262   -102.65226    1.7653874    8.2006434    9.3551136     632.5395
  227300    280.76819      0.11365    1.3236169    5.2237034   -103.20515    1.9960675    8.2963209    9.3555337    639.94812
  227400    242.34463       0.1137  -0.52773638     4.481841   -103.03104    1.7229026    8.2389706    9.3559537    635.55286
  227500    292.52127      0.11375  -0.18823791    5.2573639   -102.76903    2.0796238    8.2693578    9.3563738    637.92556
  227600    294.37954       0.1138   0.96715525    6.2664768    -102.4917    2.0928348    8.2162033    9.3567939    633.85351
  227700    288.44882      0.11385    -1.673935    6.0313116   -102.16914    2.0506715    8.2695859    9.3572139    638.00044
  227800    345.27253       0.1139    1.4161945    5.8537042   -102.35123    2.4546487     8.316835     9.357634    641.67452
  227900    278.26326      0.11395 -0.042930166    6.2953749   -102.34756    1.9782592     8.179117     9.358054     631.0774
  228000     229.4691        0.114   -1.5901546    7.1400811   -102.39278    1.6313665     8.285121    9.3584741    639.28506
  228100    277.26309      0.11405    2.4192332    7.2785561   -102.53264    1.9711487    8.3292623    9.3588941    642.71988
  228200    284.48756       0.1141   -1.2819155    6.1494039   -102.29069    2.0225097     8.086884    9.3593142    624.04499
  228300    259.87495      0.11415  -0.66465917    6.6679294   -101.93515     1.847531    8.2796339    9.3597343     638.9477
  228400    316.65251       0.1142     1.075888    7.0027114   -101.89579    2.2511802    8.2642307    9.3601543    637.78765
  228500    389.98471      0.11425  -0.80624589    6.1067731   -102.35861    2.7725214    8.2501315    9.3605744    636.72812
  228600    327.29119       0.1143  0.096154179    7.6324426   -102.15668    2.3268139    8.2845855    9.3609944     639.4159
  228700    278.53969      0.11435   0.69224284     6.893558   -102.19479    1.9802244    8.3392837    9.3614145    643.66646
  228800    304.55485       0.1144  -0.65784636    5.7130572   -102.65623    2.1651742    8.2209515    9.3618346    634.56148
  228900    314.90677      0.11445   0.54066425    5.0989812   -102.92699    2.2387692    8.3129932    9.3622546    641.69482
  229000    278.26559       0.1145  0.075064972    5.3952852   -102.83264    1.9782758    8.2231556    9.3626747    634.78858
  229100    239.31374      0.11455   -0.6483785    5.8399579   -102.63079    1.7013551    8.1738826    9.3630947    631.01324
  229200     329.9126       0.1146   0.38263343    5.2230714   -102.76395    2.3454503    8.2631418    9.3635148    637.93256
  229300    322.84686      0.11465   0.14587087    3.8684222   -102.68772    2.2952178    8.2381162    9.3639348    636.02905
  229400    252.65702       0.1147  -0.32794668    4.1561824   -102.48913    1.7962165    8.1827868    9.3643549    631.78565
  229500    322.52014      0.11475   -0.1662895    5.1400086   -102.83952     2.292895    8.2524472     9.364775    637.19266
  229600    322.13397       0.1148   0.60104607    5.1358504    -102.4725    2.2901496    8.2817676     9.365195    639.48524
  229700    364.02932      0.11485  -0.37449798    4.7117336   -102.20375    2.5879965    8.2149852    9.3656151    634.35702
  229800    319.02477       0.1149  0.079566102     4.236449   -102.05282    2.2680453    8.3202959    9.3660351    642.51788
  229900    380.05531      0.11495   0.41018748    3.5193202   -103.05202    2.7019302    8.2317878    9.3664552    635.71153
  230000    294.58798        0.115  -0.40472408    3.0497181   -102.82111    2.0943167    8.2302669    9.3668753    635.62258
  230100      294.468      0.11505  -0.20092761    3.0229329   -102.91289    2.0934637    8.2422155    9.3672953    636.57391
  230200    254.51546       0.1151 -0.021312932    4.8498599   -102.58994    1.8094288    8.2637133    9.3677154    638.26288
  230300    298.02496      0.11515   0.76771272    5.1895406   -102.64816    2.1187512     8.303636    9.3681354    641.37514
  230400    316.34537       0.1152  -0.52243038     2.632026   -102.40995    2.2489966    8.1689866    9.3685555    631.00308
  230500    292.17084      0.11525  -0.22018377    1.4465469   -102.18564    2.0771325    8.2875415    9.3689755    640.18941
  230600    360.95909       0.1153   0.66221683     2.484498   -102.52572    2.5661693    8.2321285    9.3693956    635.93742
  230700    320.77015      0.11535  -0.25211198    2.0268153   -102.62935    2.2804538    8.2145959    9.3698157    634.61146
  230800    288.43099       0.1154   -1.3379419    3.4252549   -102.98373    2.0505447    8.2829569    9.3702357    639.92132
  230900    259.66652      0.11545    1.8864114    5.5227703   -102.80279    1.8460493    8.3705462    9.3706558    646.71725
  231000    257.38985       0.1155  -0.22780077    5.2973769   -102.51326    1.8298637    8.2080019    9.3710758    634.18733
  231100    307.25078      0.11555  -0.48645792    3.9045949   -102.36424    2.1843404    8.1684809    9.3714959    631.16205
  231200    309.90774       0.1156  -0.76589754    4.0060025   -102.25789    2.2032295    8.3031636    9.3719159    641.59747
  231300    328.06231      0.11565    1.7407246    5.5896753   -102.44633     2.332296    8.2436899     9.372336    637.03039
  231400     293.5493       0.1157   -1.8090929    5.1231818   -102.33027    2.0869324    8.2634982    9.3727561     638.5897
  231500    288.40951      0.11575    1.1320875    6.3090919   -102.40833     2.050392    8.3150253    9.3731761    642.60043
  231600    302.63513       0.1158 -0.045848757    7.0335682    -102.5745    2.1515264    8.2506412    9.3735962    637.65329
  231700    345.06994      0.11585  -0.36365908    6.9014763   -102.74632    2.4532085    8.2510199    9.3740162    637.71113
  231800    320.23765       0.1159  0.024588927    5.1101163   -102.35374    2.2766681    8.2728468    9.3744363    639.42676
  231900    311.53994      0.11595   0.58680694    5.7896115   -102.16814    2.2148334    8.2030689    9.3748564    634.06187
  232000    290.67318        0.116   -1.0543848    5.0774125   -102.19301    2.0664851    8.2623957    9.3752764     638.6762
  232100    277.86793      0.11605    1.1271754    3.2832507   -102.60736    1.9754487    8.2725269    9.3756965    639.48798
  232200     330.7007       0.1161  -0.94921927    3.2294035   -103.18533    2.3510531    8.2294049    9.3761165    636.18304
  232300    295.86551      0.11615   0.81359693    3.7007617   -102.94649     2.103399    8.3000503    9.3765366    641.67311
  232400    287.02615       0.1162  -0.38827055    3.8189248   -102.65767    2.0405573    8.1802832    9.3769566     632.4423
  232500    322.46467      0.11625  -0.31003912    4.3829603    -102.1522    2.2925006    8.2562111    9.3773767     638.3411
  232600    345.75047       0.1163   0.21378526    4.3060964   -102.21889    2.4580466    8.2889439    9.3777968     640.9006
  232700    352.18343      0.11635   0.43616729    2.7765931   -102.63702    2.5037805    8.2666298    9.3782168    639.20391
  232800     294.5373       0.1164  -0.54174019    2.3709133   -102.51791    2.0939564    8.2392695    9.3786369    637.11685
  232900    338.95561      0.11645 -0.081735699    3.9005664   -102.94598    2.4097398    8.2705367    9.3790569    639.56328
  233000    259.38106       0.1165   0.41784077    3.9441361   -102.71787    1.8440198    8.2986915     9.379477    641.76925
  233100    281.02087      0.11655  0.052213871    4.2079675   -103.12738    1.9978639    8.2642132    9.3798971    639.13153
  233200    225.66636       0.1166  0.056520277    5.4236457   -102.93816    1.6043316    8.2716153    9.3803171    639.73264
  233300    283.51207      0.11665  -0.24405197    5.5893949   -103.10937    2.0155746    8.2310059    9.3807372    636.62038
  233400    349.18058       0.1167  0.031825837    4.0196064   -103.05379    2.4824323    8.2604717    9.3811572      638.928
  233500    318.23496      0.11675   0.27441557    2.9577554   -102.76649    2.2624304    8.2563842    9.3815773    638.64044
  233600     266.4017       0.1168  -0.82840649    2.4714745   -102.63992    1.8939318    8.2785323    9.3819973    640.38229
  233700       280.14      0.11685    1.1011366    2.9876801   -102.86885    1.9916015     8.272117    9.3824174    639.91469
  233800    276.38787       0.1169   -0.8470416    4.4967514   -102.98651    1.9649265    8.2345969    9.3828375    637.04072
  233900    292.05528      0.11695   0.12479595    5.9605151   -103.02221     2.076311    8.2968045    9.3832575    641.88193
  234000    296.00667        0.117   0.89272301    5.1537212   -102.62402    2.1044025    8.2883534    9.3836776    641.25682
  234100    324.90215      0.11705   -1.1691204    3.9520354    -102.5001    2.3098294    8.1999507    9.3840976    634.44564
  234200    324.63696       0.1171   0.34433943    4.1462773   -102.52185    2.3079441    8.2821525    9.3845177    640.83443
  234300    291.25688      0.11715  0.027220338    5.4549107   -102.82535    2.0706349    8.2862444    9.3849377    641.17975
  234400    297.87705       0.1172   0.35335264    4.1017772   -103.10964    2.1176997    8.3068408    9.3853578    642.80224
  234500      314.215      0.11725  -0.43402302    2.9233633   -103.16661    2.2338512     8.273077    9.3857779    640.21817
  234600    259.47956       0.1173   0.74587347    3.6911826   -102.60994    1.8447201    8.2736329    9.3861979    640.28984
  234700    311.75373      0.11735  -0.96804462    4.0970725   -102.54897    2.2163533    8.2169246     9.386618    635.92969
  234800    283.57316       0.1174   0.66845996    4.0583125   -102.25112    2.0160089    8.2897747     9.387038    641.59647
  234900    263.59127      0.11745   0.22914666    4.8924402   -102.22764    1.8739515    8.2026784    9.3874581    634.88396
  235000    285.78539       0.1175    -1.301743    5.2470254   -102.41421    2.0317363     8.256475    9.3878782    639.07639
  235100    271.49971      0.11755    2.0724229    4.8131319   -102.31177    1.9301751    8.3008743    9.3882982    642.54178
  235200    379.64814       0.1176   -2.1762327     3.149215   -102.76059    2.6990356    8.1741418    9.3887183    632.76017
  235300    341.05071      0.11765   0.92358764    3.0762232   -102.52721    2.4246345    8.3594921    9.3891383    647.13709
  235400    315.09641       0.1177   0.80128435    3.8374263   -103.00494    2.2401174    8.2393054    9.3895584    637.86155
  235500    250.78048      0.11775   -1.1088524    3.2746969    -102.7276    1.7828757    8.2012103    9.3899784    634.94076
  235600    299.51959       0.1178   0.03309052    4.6412428   -102.79529     2.129377    8.2866821    9.3903985    641.58671
  235700    332.13206      0.11785   0.67084122    6.1293027   -102.62676    2.3612291    8.2098274    9.3908186    635.66476
  235800    348.10892       0.1179  -0.78365956    3.5607356   -102.73195    2.4748135     8.267594    9.3912386    640.16611
  235900    261.25636      0.11795   0.66716476    4.8451321   -102.22917    1.8573519    8.2424174    9.3916587    638.24521
  236000    305.13904        0.118  -0.49093632     5.138983   -102.42907    2.1693274    8.3143351    9.3920787     643.8429
  236100    271.43937      0.11805   0.85928357    5.3991918   -102.46489    1.9297461    8.2917926    9.3924988    642.12598
  236200    260.53281       0.1181  -0.43225666    4.2205889   -102.59663     1.852208     8.187058    9.3929189    634.04357
  236300    327.19777      0.11815  -0.42185776    4.0184547   -102.82008    2.3261497    8.2559084    9.3933389    639.40425
  236400     375.4733       0.1182   0.39561054    5.0301499    -102.4374    2.6693554    8.2932623     9.393759    642.32596
  236500    306.38571      0.11825   -0.3383496    5.8664636   -102.10964    2.1781904    8.2477397     9.394179    638.82873
  236600    294.55567       0.1183   0.56782209    6.3379448     -102.348     2.094087    8.2930187    9.3945991    642.36454
  236700    286.31203      0.11835  -0.52486519    5.8811217    -102.5914    2.0354804    8.2390453    9.3950191    638.21238
  236800    313.96601       0.1184   0.64875247     5.972984   -102.77006    2.2320811    8.2284575    9.3954392    637.42072
  236900    293.17821      0.11845   -0.9828536    4.6866612   -102.63273    2.0842942    8.2393671    9.3958593    638.29437
  237000    288.10706       0.1185   0.73877464     5.456559    -102.6601    2.0482418    8.2529464    9.3962793    639.37493
  237100    323.59317      0.11855  -0.10324066     7.087482   -102.59067    2.3005235    8.2310264    9.3966994    637.70524
  237200    371.05843       0.1186  -0.40657533    5.6112535   -102.58662    2.6379687    8.2573241    9.3971194    639.77128
  237300    297.42621      0.11865   0.62388868     5.349653    -102.2191    2.1144946    8.2796067    9.3975395    641.52639
  237400    301.66277       0.1187  -0.42981844    6.4268913   -102.58584    2.1446136    8.2258556    9.3979596     637.3901
  237500    292.44515      0.11875 8.9746007e-05    5.9009586    -102.9816    2.0790826    8.3111003    9.3983796    644.02417
  237600    270.11947       0.1188   0.83380213    3.6391714   -102.85313    1.9203625    8.2302173    9.3987997    637.78508
  237700     315.1858      0.11885   -1.0398585    4.3923027   -102.92996    2.2407529    8.1399413    9.3992197     630.8175
  237800     299.4462       0.1189   0.10170828    4.4399584   -102.76614    2.1288552    8.3068033    9.3996398    643.77751
  237900    296.52736      0.11895   0.43814398     5.173744   -102.55886    2.1081043    8.2306304    9.4000598    637.90261
  238000     337.8264        0.119  -0.10961759    5.3943394   -102.38409    2.4017119    8.1664249    9.4004799    632.95474
  238100    318.47039      0.11905  -0.27602461    4.2976438    -102.4238    2.2641041    8.2734688       9.4009    641.28004
  238200     295.3341       0.1191   0.42673641    3.8616238   -102.38687    2.0996211    8.2213443      9.40132    637.26833
  238300    300.20103      0.11915  -0.34390113    3.0816333   -102.59424    2.1342216    8.2061035    9.4017401    636.11537
  238400    285.98611       0.1192   0.29202168    5.0313301   -102.66851    2.0331633    8.2900721    9.4021601    642.65311
  238500    278.63662      0.11925  -0.17761241    5.7595519   -102.87645    1.9809135     8.227877    9.4025802    637.86019
  238600    260.98075       0.1193   0.31239028    8.0703676   -102.83433    1.8553925    8.2766667    9.4030002    641.67124
  238700    292.24545      0.11935 -0.031589875    7.2568763   -102.54995    2.0776629    8.2227623    9.4034203    637.52063
  238800     287.6104       0.1194  -0.24400469    5.4937405    -102.1413    2.0447109    8.1734532    9.4038404    633.72594
  238900    295.62181      0.11945  -0.46214901    4.3748487   -101.93668    2.1016665     8.252729    9.4042604    639.90115
  239000    356.95851       0.1195    1.1570621    4.3579168   -102.35719     2.537728     8.209074    9.4046805    636.54465
  239100    278.85426      0.11955   -1.0600318      5.24987   -102.56955    1.9824608     8.199634    9.4051005    635.84106
  239200    265.29091       0.1196   0.24203552    5.8095235   -102.60251    1.8860348    8.3138632    9.4055206    644.72777
  239300     318.3725      0.11965   0.41203821    5.4506406   -102.66336    2.2634082    8.2334762    9.4059407    638.52239
  239400    344.25177       0.1197  -0.22853208    4.1968664   -102.65903    2.4473919    8.3137486    9.4063607    644.77647
  239500    297.39645      0.11975 -0.088317926    4.8272904   -102.45121     2.114283    8.2657846    9.4067808    641.08522
  239600    301.54974       0.1198   0.18850639     4.572166   -102.51708    2.1438099    8.2527926    9.4072008    640.10616
  239700    318.59558      0.11985   0.10982563    3.5877055   -102.81093    2.2649941    8.2776462    9.4076209    642.06253
  239800    248.26579       0.1199  -0.45814841    4.6794509   -102.58733     1.764998    8.2044504    9.4080409    636.41345
  239900    296.53933      0.11995   0.25124761    5.7428973   -102.58404    2.1081894    8.3107689     9.408461    644.68929
  240000    334.34433         0.12   0.51656434    5.3463107   -102.48543    2.3769568    8.2110306    9.4088811    636.98075
  240100    293.65094      0.12005  -0.55134424    6.7945464   -102.04006     2.087655    8.2143942    9.4093011    637.27013
  240200    369.46015       0.1201 -0.046485583    6.0700895   -102.51843     2.626606    8.2438573    9.4097212    639.58443
  240300    323.73597      0.12015  0.023387677    6.3485652   -102.48754    2.3015387    8.2756394    9.4101412    642.07884
  240400    306.97891       0.1202   0.70948204    6.1043887   -102.46204    2.1824076    8.1881532    9.4105613    635.31945
  240500    349.54735      0.12025   -1.6740872     4.053453   -102.80506    2.4850398     8.218445    9.4109814    637.69825
  240600     303.0892       0.1203    1.6549366    2.2788369   -102.66069    2.1547545    8.3505512    9.4114014    647.97776
  240700    262.12265      0.12035  -0.40993228    3.5712438   -102.56248    1.8635107     8.209963    9.4118215    637.09697
  240800    274.81146       0.1204  -0.76168094    3.5250431   -102.63011    1.9537193    8.2214695    9.4122415    638.01835
  240900    283.35433      0.12045   0.81075692    4.2381741   -102.58436    2.0144532    8.3216717    9.4126616    645.82326
  241000    305.31555       0.1205   0.26967483    5.2530552   -102.55177    2.1705823    8.1635006    9.4130816    633.57629
  241100    311.87341      0.12055   -1.1132688    6.4912773   -102.28871    2.2172041    8.3138075    9.4135017    645.27053
  241200    335.82781       0.1206    1.5644748    5.1487709   -102.28027    2.3875033    8.2162392    9.4139218    637.72629
  241300    269.93105      0.12065   -1.3642096    4.7920777   -102.37487     1.919023    8.1810451    9.4143418    635.02293
  241400    266.07352       0.1207   0.25203481    6.4248479   -102.41239    1.8915986    8.2846583    9.4147619    643.09421
  241500    331.02318      0.12075 -0.042111488    5.1958044   -102.51861    2.3533457    8.2894991    9.4151819    643.49869
  241600    293.10078       0.1208   0.17589803    5.6251326   -102.23245    2.0837437    8.2952988     9.415602    643.97764
  241700    265.37823      0.12085   0.64775092    6.0089377   -102.37959    1.8866556    8.2924258     9.416022    643.78332
  241800    269.52643       0.1209  -0.47440576    4.0637329   -102.55573    1.9161464     8.168213    9.4164421    634.16834
  241900    297.00448      0.12095   -0.8267076    4.3775581   -102.67616    2.1114963    8.2533519    9.4168622    640.80698
  242000     322.4042        0.121    1.1997061    3.3341938   -102.17493    2.2920707    8.3005919    9.4172822    644.50354
  242100    308.18676      0.12105  -0.33382539     1.351049    -102.0104    2.1909946    8.2120301    9.4177023    637.65556
  242200    294.13944       0.1211  -0.51761868    1.6929946   -102.30961    2.0911279    8.2528268    9.4181223    640.85197
  242300    311.80189      0.12115   0.45730924    3.2033563    -102.8119    2.2166957    8.2632263    9.4185424    641.68812
  242400    302.75992       0.1212   0.18339452    2.9780585   -102.92306    2.1524135    8.1917034    9.4189625    636.16233
  242500    320.32806      0.12125  -0.76600208    3.6643369   -103.23921    2.2773108    8.2633943    9.4193825    641.75841
  242600    326.77162       0.1213   0.92943309    4.0339456   -103.06569    2.3231201    8.2744197    9.4198026    642.64333
  242700    397.90483      0.12135     -1.14441     3.896999   -102.95475     2.828828    8.2513118    9.4202226     640.8772
  242800    288.06011       0.1214    1.2526764    3.7982301   -102.36554    2.0479081    8.3371151    9.4206427     647.5704
  242900    327.68435      0.12145  -0.62405757    2.8931862   -102.97261     2.329609    8.1761289    9.4210627    635.09441
  243000     235.1171       0.1215  -0.72664485    3.2968492   -102.72837    1.6715199     8.319542    9.4214828    646.26307
  243100    242.39675      0.12155    2.0146376    3.8891909   -102.71241    1.7232731    8.3081255    9.4219029    645.40501
  243200    317.44308       0.1216   -1.5870997    3.9875464   -102.91172    2.2568006    8.1521282    9.4223229    633.31481
  243300    267.34175      0.12165   0.37362218    4.2887665   -102.45432    1.9006148    8.3256929     9.422743    646.82738
  243400    340.35343       0.1217   0.49914758    3.1664028    -102.7968    2.4196774    8.2175967     9.423163    638.45779
  243500    339.33236      0.12175    -1.156127    4.1989845   -102.94938    2.4124182    8.2553741    9.4235831    641.42146
  243600    263.77019       0.1218   0.97189898    3.3237857    -102.9398    1.8752235    8.3244716    9.4240032    646.81898
  243700    256.09784      0.12185  0.065043486    2.8996098   -103.00677    1.8206784    8.2380267    9.4244232    640.13067
  243800    300.01996       0.1219  -0.45071742    3.7026106   -103.16467    2.1329343    8.2122652    9.4248433    638.15733
  243900    314.45711      0.12195  0.096463753    4.5867623   -102.98268    2.2355725    8.2964173    9.4252633    644.72534
  244000    263.68796        0.122  -0.11147595    4.4078976   -102.41553    1.8746389    8.2098725    9.4256834    638.02826
  244100     349.1013      0.12205   0.48584252    4.6345954   -102.74876    2.4818686    8.2385955    9.4261034      640.289
  244200    354.73404       0.1221    -0.805476    4.1963552   -102.74713    2.5219136    8.2223199    9.4265235    639.05256
  244300    285.41587      0.12215   0.58173036    3.2438067   -102.51743    2.0291093    8.3339689    9.4269436    647.75898
  244400    288.51333       0.1222  -0.13505019    3.6872642   -102.83796    2.0511302    8.2142707    9.4273636    638.48387
  244500    245.60626      0.12225   0.31891442    3.4430725   -102.87137    1.7460905    8.2515949    9.4277837     641.4136
  244600    216.40444       0.1223  -0.72658803    2.8782664   -102.60903    1.5384858    8.2240449    9.4282037    639.30057
  244700    297.82592      0.12235   0.59150238    3.4367042   -102.57431    2.1173362    8.2755851    9.4286238    643.33574
  244800    350.49802       0.1224  0.015630591    4.2851085   -102.86984    2.4917983    8.2114277    9.4290438    638.37665
  244900    272.75895      0.12245  -0.50648532    3.3791835   -102.62629    1.9391273    8.2863247    9.4294639    644.22802
  245000    265.44109       0.1225   0.74683844     4.830493   -102.62317    1.8871024    8.2539868     9.429884    641.74246
  245100    318.06107      0.12255  -0.61739653    5.9277591   -102.50588    2.2611941    8.2247657     9.430304    639.49903
  245200    313.98331       0.1226    0.3302536     5.784376   -102.01851    2.2322041    8.3109299    9.4307241    646.22733
  245300    326.10709      0.12265  0.097344034    5.2224591   -102.19235    2.3183957    8.2259047    9.4311441    639.64457
  245400    304.87654       0.1227  -0.24119847    4.9317226   -102.43817    2.1674612    8.2513105    9.4315642     641.6487
  245500    270.22936      0.12275   0.31488243    4.8410952   -102.52209    1.9211438      8.19705    9.4319843    637.45761
  245600    286.79511       0.1228  -0.78188435    4.5077301   -102.73245    2.0389148     8.246923    9.4324043    641.36464
  245700    290.38354      0.12285    0.5879029    3.3265542    -102.7496     2.064426     8.342687    9.4328244    648.84111
  245800    339.72448       0.1229   0.61719955     3.180335   -102.87295     2.415206    8.2291573    9.4332444    640.03999
  245900    330.67123      0.12295   -1.3925035    4.1267721   -102.47178    2.3508436    8.2605135    9.4336645     642.5074
  246000    293.40488        0.123   0.89665911    3.2239945    -102.0397    2.0859057     8.354929    9.4340845    649.88002
  246100    291.00868      0.12305   0.66497561    3.5197183   -102.28251    2.0688704    8.1770967    9.4345046    636.07583
  246200    297.00339       0.1231   -1.7176437     4.382755   -102.80425    2.1114885    8.2096236    9.4349247    638.63445
  246300    274.74428      0.12315    1.0175908    4.6953647    -102.7063    1.9532417    8.3123343    9.4353447     646.6532
  246400    258.07815       0.1232   0.37492958    3.5488138   -102.61179    1.8347571    8.1799417    9.4357648    636.38213
  246500     238.1437      0.12325   -1.1072027     2.622065   -102.31321    1.6930369    8.2609218    9.4361848    642.71082
  246600    270.70267       0.1233    1.1531752    4.8038204   -102.00399    1.9245087    8.2460839    9.4366049    641.58497
  246700    356.80411      0.12335  -0.71432332    5.3117927     -102.332    2.5366303      8.24078     9.437025    641.20084
  246800    319.51669       0.1234  -0.34361475    4.2367244   -102.46351    2.2715426    8.3188471     9.437445    647.30392
  246900    305.24037      0.12345   0.92513013    5.1252393   -102.76603    2.1700478     8.313234    9.4378651    646.89594
  247000    308.97748       0.1235  -0.24272206    4.2775082   -102.81617    2.1966161    8.2120534    9.4382851      639.051
  247100     279.7217      0.12355  -0.18901567    4.1374937   -102.46433    1.9886277    8.2336006    9.4387052    640.75629
  247200    371.89501       0.1236   0.17531277    4.4701945    -102.5009    2.6439162    8.2283814    9.4391252    640.37862
  247300    335.01326      0.12365  -0.23419616    4.6211369   -102.27307    2.3817125    8.1712661    9.4395453    635.96188
  247400     309.2461       0.1237   -0.2232936     3.871829   -102.33881    2.1985258    8.2787657    9.4399654    644.35715
  247500    300.70839      0.12375   0.75646917     3.972061   -102.47036    2.1378286    8.2267215    9.4403854    640.33491
  247600    272.09111       0.1238   -1.1140334    4.6195111   -102.47298    1.9343795    8.3368703    9.4408055    648.93732
  247700    237.41008      0.12385    1.6806655    4.6707331   -102.66373    1.6878213    8.2496554    9.4412255    642.17714
  247800    249.89111       0.1239   -1.1319228    4.7105027    -103.1221    1.7765528    8.2038663    9.4416456    638.64119
  247900    238.52043      0.12395  0.093128579    4.8740897   -102.94148    1.6957152    8.2397837    9.4420656    641.46577
  248000     268.6768        0.124   0.27208172    5.2932468   -102.58448    1.9101061    8.2169855    9.4424857    639.71939
  248100    292.41172      0.12405  -0.19945872    5.1981138   -102.41749     2.078845    8.1963543    9.4429058    638.14158
  248200     332.6779       0.1241  -0.15648244    5.6444383   -102.39623    2.3651097    8.2860322    9.4433258     645.1523
  248300    317.79743      0.12415   0.11537758    4.8483483   -102.22365    2.2593198    8.2712162    9.4437459    644.02737
  248400    322.39194       0.1242   0.33323363    5.1887955   -102.52112    2.2919836    8.3102872    9.4441659    647.09837
  248500    268.10846      0.12425  -0.15336016    6.2450176   -102.54158    1.9060656    8.2363904     9.444586    641.37276
  248600    293.54345       0.1243  -0.11115608    6.5516764   -102.75455    2.0868908     8.276095    9.4450061    644.49324
  248700    320.90386      0.12435   0.39763073    4.1403241   -102.71555    2.2814043     8.253625    9.4454261      642.772
  248800    342.99709       0.1244  -0.61657847    3.8650366   -102.32393    2.4384719    8.2293177    9.4458462    640.90751
  248900    292.84564      0.12445   0.38651387    3.4508248   -102.18268    2.0819298    8.2743252    9.4462662    644.44139
  249000    342.35153       0.1245   0.26135685    3.2011674    -102.8881    2.4338824    8.1673803    9.4466863    636.14033
  249100    285.43478      0.12455  -0.85487891    3.6903696   -102.75374    2.0292437    8.2593581    9.4471063     643.3329
  249200    321.61525       0.1246   0.71027853    4.0707846   -103.08333    2.2864618    8.2763669    9.4475264     644.6864
  249300    263.67504      0.12465   -0.2269989    3.5934329   -102.65038    1.8745471    8.1832178    9.4479465    637.45891
  249400    302.92138       0.1247  -0.20705108    4.1540452   -102.60144    2.1535614    8.3153147    9.4483665    647.77783
  249500    315.72921      0.12475   0.51252508    4.3485329   -102.55843    2.2446162    8.1832109    9.4487866    637.51506
  249600     276.0046       0.1248  -0.65655535    2.7631798   -102.61807    1.9622017    8.2269648    9.4492066    640.95221
  249700    232.31416      0.12485   0.28660904    3.8352355   -102.72885    1.6515929    8.3142438    9.4496267    647.78079
  249800     335.2964       0.1249   0.26665714    4.9500237   -103.28273    2.3837254    8.2381753    9.4500468    641.88267
  249900    320.56717      0.12495 -0.086402061    4.0303521   -102.43007    2.2790107    8.2912829    9.4504668    646.04929
  250000    297.99516        0.125  -0.24414895    4.6685371   -102.26422    2.1185394    8.2503005    9.4508869    642.88455
  250100    325.20599      0.12505   0.59169969    4.7865579   -102.62575    2.3119896    8.2800368    9.4513069    645.23036
  250200    245.90713       0.1251  -0.44084757    4.1731704    -102.4496    1.7482295    8.1718299     9.451727    636.82653
  250300    216.74428      0.12515  -0.53867887    4.6288362   -102.55366    1.5409018    8.2751581     9.452147     644.9075
  250400    326.10719       0.1252    0.7529034    4.9549425   -102.87959    2.3183965    8.2905827    9.4525671     646.1383
  250500    343.50216      0.12525 -0.081795157    4.6009313    -102.4915    2.4420626    8.2722488    9.4529872    644.73807
  250600    290.38439       0.1253   0.41279516    4.4971394   -102.07101    2.0644321     8.216616    9.4534072    640.43052
  250700    327.09885      0.12535   -1.7704509    3.1486135   -102.45086    2.3254465    8.2619401    9.4538273    643.99184
  250800    323.22732       0.1254    2.3688887     4.562993   -102.85599    2.2979226    8.3166693    9.4542473    648.28661
  250900    301.52397      0.12545    -1.113922    4.7836147   -102.84898    2.1436268    8.1906395    9.4546674    638.49092
  251000    297.64583       0.1255  -0.65538896    4.0156383   -102.79913    2.1160559    8.2596219    9.4550875    643.89696
  251100    295.04937      0.12555    1.1466332    3.9692024    -102.5005    2.0975969    8.2740676    9.4555075    645.05177
  251200    290.11768       0.1256  -0.67286075    4.8311551   -102.13082    2.0625359     8.195027    9.4559276    638.91809
  251300    340.06404      0.12565 -0.096826385    4.7764783   -102.23589      2.41762    8.3091112    9.4563476    647.84134
  251400    317.52674       0.1257   0.75816253    4.7083336   -102.25135    2.2573954    8.2514166    9.4567677    643.37161
  251500    299.00094      0.12575  -0.87411707     5.278236    -102.6331    2.1256897    8.2304085    9.4571877    641.76209
  251600    226.01274       0.1258   0.56398869    5.9072155   -102.50298    1.6067942    8.2937179    9.4576078    646.72734
  251700    287.84962      0.12585 -0.041567757    4.2882048   -102.82285    2.0464116    8.1795373    9.4580279     637.8521
  251800    296.54416       0.1259  -0.28759248    4.4926296   -102.56806    2.1082237    8.2596055    9.4584479    644.12454
  251900    289.49207      0.12595   0.40750178    5.2623479   -101.94005    2.0580882    8.1989588     9.458868     639.4234
  252000    328.64021        0.126  -0.58120802    4.8424073    -101.9836    2.3364045     8.251071     9.459288    643.51613
  252100     315.3034      0.12605   0.64758282    4.2467007   -102.03693     2.241589    8.2798076    9.4597081    645.78602
  252200    332.73236       0.1261  -0.17625744     5.710601   -102.52505    2.3654968    8.2247294    9.4601281    641.51867
  252300    286.01983      0.12615  -0.53147897    5.6676251   -102.64603    2.0334031    8.2601973    9.4605482    644.31373
  252400    328.04059       0.1262   0.98543488    3.5048026    -103.0268    2.3321416    8.2470803    9.4609683    643.31913
  252500    239.09013      0.12625  -0.60609194    3.0699808   -102.51351    1.6997654    8.2154785    9.4613883    640.88247
  252600    275.73521       0.1263 -0.020946246    3.3138741   -102.47043    1.9602865    8.2108721    9.4618084    640.55156
  252700    319.22787      0.12635   0.46373333    3.4186236   -102.28442    2.2694892     8.264199    9.4622284    644.74036
  252800     315.9099       0.1264  -0.37777401    4.4545267   -102.33302    2.2459008    8.2219456    9.4626485    641.47239
  252900    342.79825      0.12645    0.4177153    4.4064515   -102.64076    2.4370583    8.1676055    9.4630686    637.26109
  253000    312.33523       0.1265  -0.88644182    4.5182788   -102.84551    2.2204874    8.2057339    9.4634886     640.2644
  253100    270.79721      0.12655   0.68413108    2.9712333    -102.8013    1.9251808     8.232469    9.4639087    642.37895
  253200    297.69041       0.1266  -0.63514906    3.5058228   -102.97319    2.1163728    8.2664947    9.4643287    645.06261
  253300     276.5832      0.12665   0.86750476    4.6609654   -102.63677    1.9663151    8.3311376    9.4647488    650.13576
  253400    330.64516       0.1267  -0.34225458    3.7479504   -102.22216    2.3506583    8.2151625    9.4651688    641.11389
  253500    292.65403      0.12675  -0.38065013    2.3410592   -102.01137    2.0805677     8.330908    9.4655889    650.17555
  253600    348.74629       0.1268    1.4992967    3.9059937   -102.72169    2.4793448    8.1734198     9.466009    637.91289
  253700    300.65075      0.12685   -2.4182152    3.3157886   -102.93058    2.1374188    8.2118712     9.466429    640.94235
  253800    261.01149       0.1269    2.1221757    3.3138478   -102.70091    1.8556111    8.2589419    9.4668491    644.64486
  253900    258.12138      0.12695   -1.4413024    3.3844976   -102.44451    1.8350644    8.1597035    9.4672691    636.92715
  254000    298.95555        0.127   0.35452644    3.1375978   -102.33126    2.1253671    8.3415521    9.4676892    651.15071
  254100    329.65972      0.12705   0.75424807    3.4441079   -102.45252    2.3436525    8.2737175    9.4681093    645.88413
  254200    318.34958       0.1271   -1.0497155    5.0480235   -102.61897    2.2632452    8.2578975    9.4685293    644.67774
  254300    311.88276      0.12715   0.53190081    5.6545081   -102.73356    2.2172706    8.2723776    9.4689494    645.83682
  254400    255.07325       0.1272   0.28540177    4.6332483   -102.46233    1.8133943    8.2641867    9.4693694    645.22597
  254500    264.96839      0.12725  -0.24992915    4.5166759   -102.28074    1.8837419    8.2725032    9.4697895    645.90393
  254600    385.08729       0.1273  -0.24331901    4.3833286   -102.69965    2.7377041    8.2266359    9.4702095    642.35118
  254700    306.54331      0.12735   0.22182346    3.9729902   -102.47713    2.1793108    8.2448664    9.4706296     643.8032
  254800    260.49934       0.1274    0.1221085    4.0031998   -102.50494      1.85197    8.2210696    9.4710497    641.97349
  254900    274.93695      0.12745  -0.48492627     4.258636    -102.6933    1.9546114    8.1950702    9.4714697    639.97162
  255000    294.46399       0.1275   0.19762574    4.1302771   -102.76416    2.0934352    8.3104955    9.4718898    649.01422
  255100    294.00079      0.12755    0.7064161    4.5494886   -102.79502    2.0901422    8.2666879    9.4723098    645.62167
  255200    252.57526       0.1276  -0.73188873    3.3787169   -102.74913    1.7956353    8.2057893    9.4727299    640.89395
  255300    271.20207      0.12765 -0.014336373    3.1345881   -102.61259     1.928059     8.269133    9.4731499    645.86991
  255400    322.66464       0.1277   0.43877148     4.152668   -102.62737    2.2939223    8.2353179      9.47357    643.25726
  255500    281.15254      0.12775   0.16030359    3.7990868   -102.30092       1.9988     8.235892    9.4739901    643.33063
  255600    293.47442       0.1278  -0.26608336    3.3209353   -102.23778       2.0864    8.1622447    9.4744101    637.60608
  255700    365.67788      0.12785  -0.91898975    4.6568185   -102.28027    2.5997167    8.2024695    9.4748302    640.77671
  255800    317.02633       0.1279   0.56681201    4.2511018   -102.16766    2.2538378    8.3779604    9.4752502    654.51507
  255900    319.13967      0.12795    0.9098323    2.8827339   -102.70324    2.2688622    8.2784739    9.4756703    646.77151
  256000    314.28129        0.128  -0.88211763    4.5531018   -102.73099    2.2343225    8.2132896    9.4760904    641.70731
  256100    306.29097      0.12805 -0.028519632    4.8979315   -102.81916    2.1775168    8.3433508    9.4765104    651.89794
  256200    263.17132       0.1281    1.1982198    4.0522611   -102.66246     1.870966    8.1896321    9.4769305    639.91567
  256300    286.13158      0.12815   -1.5944185    4.7642662   -102.43647    2.0341975    8.2130236    9.4773505    641.77187
  256400    271.81236       0.1282   0.60408161    3.7264777   -101.83162    1.9323978    8.3296311    9.4777706    650.91251
  256500    329.54278      0.12825   0.56222134    2.7791394   -102.15652    2.3428211    8.2274541    9.4781906    642.95646
  256600    325.33631       0.1283  -0.81618961    3.2095545   -102.49404     2.312916    8.2328979    9.4786107     643.4104
  256700    304.80743      0.12835   0.32975965    4.1473642   -102.81965    2.1669699    8.2283178    9.4790308    643.08095
  256800    301.50673       0.1284  0.037236419    3.7907854   -102.79782    2.1435042    8.2832153    9.4794508    647.40014
  256900    262.16028      0.12845  0.069314861    3.7249243    -102.5356    1.8637781    8.2573674    9.4798709    645.40852
  257000    327.09639       0.1285  -0.26538194    4.7762766   -102.58487     2.325429    8.2526824    9.4802909    645.07091
  257100    325.77917      0.12855   0.46652819    3.3519018   -102.26435    2.3160645    8.2458722     9.480711    644.56715
  257200    378.02647       0.1286   -0.3675767    2.9273374   -102.64366    2.6875066    8.2107965    9.4811311    641.85377
  257300    341.63117      0.12865   0.12619344    3.6549157   -102.77834    2.4287612    8.2256965    9.4815511    643.04702
  257400    274.12302       0.1287  -0.32185206    4.0035184   -102.45802     1.948825    8.2231663    9.4819712    642.87771
  257500    303.04134      0.12875   0.19440247    3.4824626   -102.54464    2.1544142    8.2882921    9.4823912    647.99787
  257600    240.65718       0.1288   0.49849417    4.7033117   -101.99994     1.710906    8.2724787    9.4828113    646.79019
  257700     342.2215      0.12885  -0.81792137    4.8576412   -102.46914     2.432958    8.2027476    9.4832313    641.36662
  257800    306.58298       0.1289    1.0713225    3.6641154   -102.20085    2.1795928    8.3033849    9.4836514    649.26413
  257900    357.66006      0.12895  -0.73243041    3.8216683   -102.54223    2.5427155    8.1982757    9.4840715    641.07375
  258000    256.87403        0.129  -0.49521018    4.2596976   -102.48081    1.8261966    8.2600717    9.4844915    645.93457
  258100    286.31422      0.12905   0.92331851    4.5365627   -102.89688     2.035496    8.3311542    9.4849116    651.52205
  258200     280.0162       0.1291   0.10838589    3.1881273   -102.72334    1.9907214    8.1938322    9.4853316    640.81143
  258300    319.95943      0.12915  -0.68269174    4.1151285   -102.50926    2.2746901    8.2324268    9.4857517    643.85829
  258400    322.84761       0.1292   0.14517573    4.3338493   -102.45081    2.2952231    8.2813109    9.4861717    647.71019
  258500    255.15904      0.12925   0.63070747    4.9358576   -102.09271    1.8140042    8.1985218    9.4865918    641.26337
  258600    297.07743       0.1293   -1.2922836    5.7062149    -102.4878     2.112015    8.2156301    9.4870119    642.62998
  258700    263.92853      0.12935    1.0159804    4.4963479   -102.68789    1.8763492    8.3218871    9.4874319    650.97026
  258800     222.3961       0.1294   0.44684953    3.4761145   -102.67795    1.5810824    8.1491726     9.487852    637.48809
  258900    284.74032      0.12945   -1.7025399    3.3987731   -102.85953    2.0243066    8.2016206     9.488272    641.61937
  259000    282.53595       0.1295    1.1847519     4.437815   -102.50963    2.0086351    8.3671486    9.4886921    654.59773
  259100     294.2547      0.12955   0.12686076     4.919854   -102.47964    2.0919473    8.2308353    9.4891122    643.96187
  259200    318.43748       0.1296  -0.21705219    5.2412281   -102.62642    2.2638701    8.2296376    9.4895322    643.89666
  259300    304.00101      0.12965  -0.25778519    4.3226332   -102.46592    2.1612368    8.2228469    9.4899523    643.39383
  259400    372.09159       0.1297   0.10781042    3.2492743   -102.79273    2.6453137    8.2974061    9.4903723    649.25643
  259500    301.44166      0.12975   0.87202743    3.8013076    -102.4749    2.1430416    8.1902831    9.4907924    640.90262
  259600    267.48275       0.1298   -1.8399348    3.1349597   -102.68182    1.9016173    8.2078986    9.4912124    642.30949
  259700    215.37958      0.12985    1.5612587    4.1290364   -102.38581    1.5311997    8.3262349    9.4916325    651.59874
  259800    278.75843       0.1299  -0.68828155    4.5167708   -102.35991    1.9817795    8.1803888    9.4920526    640.21337
  259900    305.17944      0.12995   0.18065398    3.7573124   -102.35526    2.1696146    8.2930933    9.4924726    649.06257
  260000    344.10741         0.13   0.14868013    4.5579545   -102.59661    2.4463656    8.2458619    9.4928927    645.39454
  260100    317.47006      0.13005  -0.55405195     3.800761   -102.58188    2.2569925    8.2819792    9.4933127    648.25009
  260200    228.22787       0.1301    1.3316922    3.8589742   -102.53743    1.6225422    8.2535501    9.4937328    646.05346
  260300    290.33194      0.13015   -1.6015492    4.0628046    -102.9982    2.0640592    8.1181019    9.4941529    635.47925
  260400    282.33621       0.1302   0.48779456    4.7450492   -102.73899    2.0072151    8.3897033    9.4945729    656.76908
  260500    322.88935      0.13025    0.8424628    3.9522777   -102.69539    2.2955198    8.1904244     9.494993    641.19735
  260600    301.35203       0.1303   -1.3125184    4.8839638   -102.31803    2.1424044     8.249541     9.495413    645.85393
  260700    302.03615      0.13035    0.9299005    5.3287311   -102.21611     2.147268    8.3158744    9.4958331    651.07595
  260800    291.48731       0.1304 0.00037915044    3.9763989   -102.21446     2.072273    8.2240878    9.4962531    643.91817
  260900    263.75383      0.13045  -0.52947775    3.8190299   -102.54181    1.8751072    8.2832075    9.4966732    648.57573
  261000    297.14847       0.1305   0.34378335    4.1519562   -103.02869      2.11252    8.2533647    9.4970933    646.26762
  261100    268.79977      0.13055  0.093505468    4.2203849   -102.94204    1.9109803    8.2999617    9.4975133    649.94507
  261200    278.31609       0.1306 -0.0062019348    4.4238054   -102.59112    1.9786348     8.224978    9.4979334    644.10181
  261300    308.26038      0.13065  -0.54641001    4.3256372   -102.36021     2.191518    8.2633023    9.4983534    647.13163
  261400    315.74466       0.1307    0.6744087    4.2615135   -102.37675     2.244726    8.2625486    9.4987735    647.10122
  261500    290.80885      0.13075  -0.23902904    4.1063468   -102.40218    2.0674497    8.2424568    9.4991935    645.55623
  261600    290.00717       0.1308  0.095428983    4.6327965   -102.83813    2.0617503     8.221175    9.4996136    643.91789
  261700    252.41039      0.13085   0.12084579    3.2187158   -102.83107    1.7944632    8.1986254    9.5000337    642.18011
  261800    255.56524       0.1309  -0.80452768    4.0133426   -102.65241     1.816892    8.2572003    9.5004537    646.79674
  261900    296.87365      0.13095    1.1195844    4.5278171   -102.72562    2.1105662    8.2491328    9.5008738    646.19338
  262000    304.29372        0.131  -0.76399955    4.8325651   -102.66854    2.1633178    8.2151844    9.5012938     643.5625
  262100    315.60244      0.13105   0.15041533    4.5175916   -102.54702    2.2437149    8.3022771    9.5017139    650.41393
  262200     337.4312       0.1311   0.47434042    4.1850794   -102.40306    2.3989023    8.2607816     9.502134    647.19171
  262300    296.09243      0.13115  -0.67899741    3.4284982    -101.9757    2.1050122    8.2346641     9.502554    645.17405
  262400    295.09534       0.1312   0.97374033    3.8644528   -102.35744    2.0979236     8.274323    9.5029741    648.30993
  262500    280.06836      0.13125   -1.0205397    4.3740376   -102.56001    1.9910922    8.1707129    9.5033941    640.22017
  262600    304.97236       0.1313  -0.16661985    4.0376394   -102.78515    2.1681424    8.3138897    9.5038142    651.46765
  262700    305.92406      0.13135    1.2564183    4.4174643   -102.85946    2.1749083    8.2597199    9.5042342    647.25156
  262800    253.15363       0.1314   -1.5587924    5.4477386   -102.45386    1.7997471    8.2404049    9.5046543    645.76654
  262900    301.20119      0.13145    1.0433197    4.5368947   -102.30823     2.141332    8.3405982    9.5050744    653.64716
  263000    335.35269       0.1315   0.31299186    4.4733883   -102.33193    2.3841256    8.1985662    9.5054944     642.5446
  263100     308.0587      0.13155   -1.0761015    4.4908739   -102.42089    2.1900842    8.2148945    9.5059145    643.85275
  263200    271.34076       0.1316   0.81690401    4.2509639   -102.54931     1.929045    8.2886351    9.5063345    649.66096
  263300    320.62508      0.13165  -0.16745657    4.0713761   -103.02439    2.2794225    8.2022975    9.5067546    642.92226
  263400    294.00241       0.1317  -0.36453072    4.0878527   -102.87632    2.0901537     8.264462    9.5071747    647.82353
  263500    279.63074      0.13175   0.52193519    4.7768829   -102.72569    1.9879811    8.2487875    9.5075947    646.62343
  263600     262.6977       0.1318  -0.51400334    3.3451973   -102.33854    1.8675989    8.2758694    9.5080148    648.77505
  263700    350.67303      0.13185   0.75548483     4.338841   -102.63811    2.4930426    8.2853767    9.5084348    649.54905
  263800    322.71168       0.1319  -0.65610361    4.8361131   -102.73279    2.2942567    8.2046944    9.5088549    643.25221
  263900    266.11367      0.13195   0.37427772    4.4259515    -102.6033    1.8918841    8.2465663    9.5092749    646.56355
  264000    255.41863        0.132  -0.39247091    4.6153738   -102.46906    1.8158497    8.2161022     9.509695     644.2035
  264100    318.72852      0.13205   0.21812192    5.0011147   -102.75288    2.2659392    8.2876927    9.5101151    649.84543
  264200    297.80249       0.1321   0.19528134    4.0258585   -102.61575    2.1171697    8.2792512    9.5105351     649.2122
  264300    288.91119      0.13215  -0.31960263    4.4825462   -102.44696    2.0539586    8.2244924    9.5109552    644.94681
  264400    313.84838       0.1322  0.012563325    4.8557179   -102.29299    2.2312448    8.3000452    9.5113752    650.90024
  264500    303.62213      0.13225   0.37897194     4.189811   -101.80303    2.1585432    8.3465121    9.5117953    654.57315
  264600     358.9598       0.1323   0.32861629    3.8489684   -102.30874    2.5519558      8.15839    9.5122153    639.84797
  264700    317.41262      0.13235   -1.7449396    4.6089367   -102.71144    2.2565841    8.2480349    9.5126354    646.90722
  264800    296.00548       0.1324     2.123105    5.0249519   -102.77369    2.1043941    8.3570764    9.5130555    655.48848
  264900    284.78892      0.13245   -1.1157549    5.2138883   -102.71692    2.0246521    8.1907546    9.5134755    642.47137
  265000    323.93149       0.1325   0.13465014    4.7873549   -102.72197    2.3029288    8.2275419    9.5138956    645.38541
  265100    345.66674      0.13255  -0.25171449     3.624838   -102.32272    2.4574513    8.2763375    9.5143156    649.24171
  265200    316.04213       0.1326   0.83910409    5.1134327   -102.18691    2.2468408    8.2425727    9.5147357    646.62155
  265300    315.44708      0.13265   -0.7447557    4.6616413   -102.41247    2.2426105     8.186599    9.5151558    642.25882
  265400    312.44052       0.1327  0.087435773    2.9486338   -102.63811    2.2212359    8.2779613    9.5155758    649.45509
  265500    252.41302      0.13275   0.63404454    5.0339138   -102.39523    1.7944819    8.2410008    9.5159959    646.58386
  265600    310.29714       0.1328   -1.0233108    4.8678857   -102.67823    2.2059979    8.2231848    9.5164159    645.21451
  265700    287.91224      0.13285   0.74846889    3.3884502   -102.41567    2.0468568    8.2712625     9.516836    649.01547
  265800    314.92373       0.1329  -0.21286938    4.7869544   -102.24463    2.2388898    8.2412133     9.517256    646.68616
  265900     401.9029      0.13295  -0.27902403     5.825178   -102.18685    2.8572515    8.2984872    9.5176761    651.20917
  266000    335.51528        0.133   0.89608834    4.9759949   -102.08571    2.3852815    8.2335851    9.5180962    646.14461
  266100    351.72626      0.13305   -1.0819195    4.5662015   -102.47765    2.5005303    8.1979394    9.5185162    643.37565
  266200    362.75242       0.1331   0.49356729    5.2694828   -102.97986    2.5789187    8.2847623    9.5189363    650.21822
  266300    241.27283      0.13315   0.19341068    4.3284064   -102.40363    1.7152829    8.2490318    9.5193563    647.44253
  266400    268.32007       0.1332 -0.085033262    3.9956408   -102.44628      1.90757    8.2469484    9.5197764    647.30756
  266500    304.81064      0.13325  -0.39560477    4.4176522   -102.33872    2.1669927    8.2197829    9.5201965     645.2038
  266600    295.25501       0.1333  0.037204828    3.6031721    -102.2581    2.0990588    8.3322126    9.5206165    654.05772
  266700     256.9975      0.13335    1.1329489    5.2213012   -102.15557    1.8270744    8.2189511    9.5210366    645.19544
  266800    323.39365       0.1334   -1.5275303    6.2751222   -102.51785    2.2991051    8.2398391    9.5214566    646.86371
  266900    333.28625      0.13345   0.70520389    5.5987389   -102.43616    2.3694346    8.2952357    9.5218767    651.24132
  267000    339.37795       0.1335   0.47692851    4.3237872   -102.60389    2.4127424    8.1744143    9.5222967    641.78419
  267100    259.74084      0.13355  -0.91039251     3.775878   -102.63962    1.8465776    8.2249362    9.5227168    645.77922
  267200    270.75837       0.1336   0.50728426    4.3592964   -102.89723    1.9249046    8.2088368    9.5231369    644.54361
  267300    284.51996      0.13365  -0.52539464    5.5046439   -102.85765      2.02274    8.2673016    9.5235569    649.16279
  267400    276.02006       0.1337   0.78562015    4.5699752   -102.58158    1.9623116    8.2623723     9.523977    648.80435
  267500    329.18943      0.13375  -0.80834087    3.8556109   -102.50873    2.3403091    8.2483394     9.524397    647.73099
  267600    303.95322       0.1338   0.64309419    4.3908212   -102.24149     2.160897    8.3159157    9.5248171    653.06646
  267700    325.55721      0.13385   0.27213338    5.1432757   -102.39959    2.3144865    8.2248806    9.5252372    645.94577
  267800    382.08047       0.1339   -1.3261442    4.5797344   -102.94088    2.7163277    8.3110888    9.5256572    652.74497
  267900    263.35408      0.13395    2.1461444    4.2896679   -102.56629    1.8722653    8.2074837    9.5260773    644.63635
  268000    273.23285        0.134    -2.082393    4.5391892   -102.56975    1.9424965    8.1551999    9.5264973    640.55809
  268100    286.98545      0.13405   0.49502222    4.3552807   -102.47505     2.040268    8.2866419    9.5269174    650.91103
  268200    303.27481       0.1341   0.89602467    4.5452131   -102.41117     2.156074    8.2278504    9.5273374    646.32149
  268300    357.61826      0.13415   -1.6280977    4.2839508   -102.76466    2.5424183    8.2483989    9.5277575     647.9642
  268400    283.35354       0.1342     1.737651    3.4292016   -102.46055    2.0144476    8.3261623    9.5281776    654.10184
  268500    266.74713      0.13425  -0.49292195    4.2878697   -102.47708    1.8963875    8.1247397    9.5285976    638.30626
  268600    323.19606       0.1343  -0.98355614    4.7580859   -103.08783    2.2977004    8.2621516    9.5290177     649.1304
  268700    254.99645      0.13435    1.5148185    4.8320069   -102.89849    1.8128483    8.2243142    9.5294377    646.18613
  268800    257.95262       0.1344   -1.4020452    5.0696957   -102.59132    1.8338646    8.2083572    9.5298578    644.96081
  268900     277.1162      0.13445    0.8566025    4.7965352   -102.25767    1.9701044    8.2772541    9.5302778    650.40296
  269000    311.79837       0.1345   0.11468543    4.0277607   -102.42682    2.2166707    8.1620318    9.5306979    641.37739
  269100    241.99597      0.13455   -1.1336364    4.4902016   -102.04691    1.7204239    8.2430124     9.531118    647.76944
  269200    281.62072       0.1346    1.2091943     4.466604   -102.07649    2.0021284    8.2967866     9.531538    652.02398
  269300    327.17731      0.13465  -0.45210221    3.0075139   -102.01803    2.3260043    8.2666291    9.5319581     649.6826
  269400    319.51712       0.1347  -0.16832994     5.339276   -102.20338    2.2715456    8.2875322    9.5323781     651.3541
  269500    255.49266      0.13475   0.45369902    7.9353953   -102.15991     1.816376    8.2877311    9.5327982    651.39843
  269600    308.23016       0.1348 -0.051307236    6.1742722   -102.40151    2.1913032    8.2251447    9.5332183    646.50776
  269700    348.49376      0.13485  -0.53713943    4.2997386   -102.50204    2.4775495    8.2706412    9.5336383     650.1125
  269800    308.25771       0.1349   0.87470268    3.8086528   -102.52698     2.191499    8.2375451    9.5340584    647.53951
  269900    258.44019      0.13495   -1.0452961    3.9785811   -102.60076    1.8373309    8.2135084    9.5344784    645.67847
  270000      278.999        0.135   0.72064516    4.7202647   -102.70744    1.9834898    8.2810587    9.5348985     651.0174
  270100     280.2977      0.13505   0.32700531    5.0144141   -102.56531    1.9927227    8.2167573    9.5353185    645.99079
  270200    315.52544       0.1351   -1.6851314    5.5824933   -102.45041    2.2431675    8.2389293    9.5357386    647.76246
  270300    312.04578      0.13515     2.031507    4.7967809   -102.24324    2.2184295    8.4157618    9.5361587    661.69456
  270400    273.78282       0.1352  -0.53180089    5.0084623    -102.0441    1.9464064    8.1817096    9.5365787     643.3204
  270500    308.70208      0.13525  -0.59712175    4.0181647   -102.36291    2.1946582    8.2048072    9.5369988    645.16495
  270600    303.67541       0.1353   0.16910048    3.9513384   -102.50798     2.158922    8.2387398    9.5374188     647.8617
  270700    270.02248      0.13535   0.14125201    4.8755089   -102.74001     1.919673    8.2094808    9.5378389    645.58932
  270800       238.37       0.1354   0.23057974    5.6947571   -102.72715    1.6946457    8.2692932     9.538259    650.32157
  270900    317.31972      0.13545  -0.52802972     4.929903   -102.85044    2.2559236    8.2102987     9.538679    645.71051
  271000    301.49762       0.1355   0.24221298    4.9881945    -102.5787    2.1434394    8.3175835    9.5390991    654.17688
  271100    304.17965      0.13555   0.53866237    5.8612361   -102.45163    2.1625068    8.2790182    9.5395191     651.1724
  271200    336.63231       0.1356  -0.54538796    4.4994943   -102.34497    2.3932228     8.159062    9.5399392     641.7657
  271300    346.07306      0.13565  -0.32758447    4.4761689    -102.3213    2.4603399    8.2471554    9.5403592    648.72341
  271400    312.05377       0.1357   0.39706707    4.8577125    -102.4957    2.2184863    8.3271141    9.5407793    655.04181
  271500    318.40161      0.13575   0.19034782    4.7640658   -103.04374    2.2636151    8.2130506    9.5411994     646.0976
  271600    247.55854       0.1358   -0.8677397    5.0012135   -102.57585    1.7599699    8.2675794    9.5416194    650.41586
  271700    260.57315      0.13585    1.1568882    5.2571248   -102.29524    1.8524948    8.3287137    9.5420395    655.25418
  271800     250.2093       0.1359  -0.35808543    5.5380328   -101.90725     1.778815    8.1666086    9.5424595    642.52899
  271900    329.55331      0.13595  -0.35286879    4.5220167   -102.57341     2.342896    8.2604175    9.5428796    649.93826
  272000    265.65293        0.136   0.59203147    4.0758231   -102.36742    1.8886085    8.2687776    9.5432996    650.62468
  272100    273.15947      0.13605  -0.29735213    4.9875717   -102.35183    1.9419748    8.2053674    9.5437197    645.66369
  272200     343.8551       0.1361  -0.48751372    4.5390512   -102.44287    2.4445718    8.3082352    9.5441398    653.78693
  272300     375.9724      0.13615   0.59668334    5.0525776   -102.23996    2.6729036    8.3109238    9.5445598    654.02728
  272400    265.16982       0.1362   0.20377236    4.7086535   -101.81786    1.8851739    8.2077157    9.5449799    645.93376
  272500    321.17961      0.13625  -0.78272395    4.2019999   -102.40554    2.2833648    8.2933019    9.5453999    652.69797
  272600     295.6967       0.1363   0.88842672    4.6122214   -102.65781    2.1021989    8.2134721      9.54582    646.44367
  272700    249.91568      0.13635  -0.88208913     5.701004   -102.66737    1.7767275    8.2786703    9.5462401    651.60379
  272800     265.9419       0.1364   0.98121908     4.876532   -102.68864    1.8906629    8.2528992    9.5466601    649.60396
  272900    243.96111      0.13645    -0.239739    4.9362049   -102.16903    1.7343947    8.1905835    9.5470802    644.72731
  273000    349.82854       0.1365  -0.92629985     4.680304    -102.5037    2.4870388    8.2742537    9.5475002    651.34213
  273100    311.03979      0.13655    1.3992989     4.374863   -102.28166    2.2112777    8.2838888    9.5479203    652.12929
  273200    320.21243       0.1366  -0.71622168    4.7829476   -102.60308    2.2764888    8.1307559    9.5483403    640.10243
  273300    286.48788      0.13665  -0.49707339     4.893196    -102.7017    2.0367306    8.2500287    9.5487604    649.52088
  273400    254.99228       0.1367   0.97096592    4.8698299   -102.76971    1.8128186    8.2546719    9.5491805    649.91503
  273500    255.06046      0.13675   -0.5362918    4.2165289   -102.85228    1.8133034    8.1729377    9.5496005    643.50815
  273600    321.99056       0.1368  -0.17032455    5.1295906   -102.82458      2.28913    8.2495703    9.5500206    649.57051
  273700    291.42096      0.13685   -0.3522382    4.4858372   -102.27494    2.0718014    8.3079164    9.5504406    654.19345
  273800    344.33044       0.1369    1.6096082    4.4167308   -102.45054    2.4479511     8.240946    9.5508607    648.94851
  273900    261.46137      0.13695    -1.488249    4.8032409   -102.08285    1.8588094    8.1917784    9.5512808    645.10509
  274000    285.92485        0.137   0.35203643     6.137265   -102.56308    2.0327278    8.2743244    9.5517008    651.63427
  274100    240.26129      0.13705    0.6165144    5.8717883   -102.68542    1.7080915    8.1760118    9.5521209     643.9201
  274200    230.62253       0.1371   -1.0420876    5.3852938   -102.88594    1.6395666    8.2138118    9.5525409    646.92557
  274300    297.15425      0.13715   0.58922426    5.5307504   -102.84712    2.1125611    8.2885281     9.552961    652.83898
  274400    289.08197       0.1372  -0.45257795    4.5679819   -102.46082    2.0551727    8.2876278     9.553381    652.79677
  274500    293.88618      0.13725     1.214753    3.5951217   -102.23992    2.0893274    8.2785371    9.5538011    652.10939
  274600    304.50298       0.1373   -1.4544178      4.07715    -101.9963    2.1648055    8.2049007    9.5542212    646.33739
  274700    360.52513      0.13735   0.72989585    4.6887189   -102.18639    2.5630841     8.325797    9.5546412    655.88978
  274800    336.57231       0.1374   0.66155739    4.3023723   -102.46217    2.3927962    8.1883824    9.5550613    645.09289
  274900    267.76763      0.13745   -1.4328116    4.6127968   -102.56533    1.9036425    8.1895788    9.5554813     645.2155
  275000    271.16442       0.1375   0.77484168    5.6088308    -102.5311    1.9277914    8.2900973    9.5559014    653.16356
  275100     327.9445      0.13755   0.18828305    4.8208058   -102.58739    2.3314585    8.1829857    9.5563214    644.75275
  275200    305.09619       0.1376  -0.88125832    4.3755338   -102.26047    2.1690228    8.2853548    9.5567415    652.84729
  275300    310.27557      0.13765   0.70454745    3.8737105   -102.06006    2.2058446    8.3100564    9.5571616    654.82245
  275400    319.45891       0.1377   0.37479836    3.6929161   -101.84249    2.2711318    8.2836437    9.5575816    652.76985
  275500    325.62484      0.13775  -0.53221719    4.3143567   -102.06614    2.3149673    8.2330716    9.5580017    648.81317
  275600    279.24577       0.1378 -0.068565855    4.3755976   -102.23343    1.9852441    8.2930643    9.5584217    653.56966
  275700    319.89539      0.13785   0.57861504    5.9246295   -102.67279    2.2742348    8.2466279    9.5588418    649.93861
  275800     257.1701       0.1379   -0.3504273    4.8141173    -102.4533    1.8283015    8.2206457    9.5592619    647.91935
  275900    330.61645      0.13795  -0.12506418    5.0311525   -102.83947    2.3504542    8.2049692    9.5596819     646.7122
  276000    357.84857        0.138  -0.35901981    4.1060682   -102.47824    2.5440557    8.2348906     9.560102    649.09912
  276100    360.29177      0.13805   0.74448311    3.5055216   -102.33634    2.5614251    8.2955817     9.560522    653.91171
  276200     288.9106       0.1381  -0.46934952    3.2632634   -101.75889    2.0539544    8.2398769    9.5609421    649.54923
  276300    402.79314      0.13815  0.093252814    3.7643269   -102.12846    2.8635805    8.2585346    9.5613621    651.04862
  276400    337.49472       0.1382   0.21848073    4.9857009   -102.24225    2.3993539    8.2960982    9.5617822    654.03862
  276500    314.90052      0.13825   0.30890793    5.3932539   -102.42467    2.2387248    8.1588542    9.5622023    643.24698
  276600    267.34844       0.1383  -0.99946409    4.1780522   -102.17482    1.9006624    8.1496611    9.5626223    642.55042
  276700    297.38233      0.13835    0.1644961    3.4059487   -102.27237    2.1141826    8.2902403    9.5630424    653.66293
  276800    327.20857       0.1384      1.17777     4.656108   -102.36917    2.3262265    8.2559827    9.5634624    650.99041
  276900    270.86881      0.13845   -1.2618406    4.5837196   -102.01383    1.9256898    8.2476431    9.5638825    650.36139
  277000    283.51889       0.1385   0.54579182    4.7920276    -102.3441    2.0156231    8.3253012    9.5643026    656.51389
  277100    258.12047      0.13855   0.40207171    4.5420758   -102.40837    1.8350579    8.1734001    9.5647226    644.56363
  277200    334.65547       0.1386  -0.93864774    5.0416478   -102.70227    2.3791688    8.2389349    9.5651427    649.76031
  277300    305.94648      0.13865   0.82720843    4.9277323   -102.20832    2.1750677    8.2802474    9.5655627    653.04709
  277400    272.52703       0.1387  -0.38819352    4.6390263   -102.12382    1.9374786    8.2071497    9.5659828    647.31044
  277500    307.38387      0.13875  0.050816829    4.2350656   -102.57637    2.1852866    8.2314877    9.5664028    649.25852
  277600    301.30157       0.1388  -0.29035099    4.4728593     -102.721    2.1420457    8.2342161    9.5668229    649.50224
  277700     249.7424      0.13885   0.45405367    5.7754654   -102.50161    1.7754957    8.2892996     9.567243    653.87585
  277800       285.04       0.1389  0.029766599    5.8993085   -102.33969    2.0264372    8.3044309     9.567663     655.0982
  277900    367.31612      0.13895  -0.19774036    4.4814263    -102.5449    2.6113634     8.257223    9.5680831    651.40278
  278000     287.9862        0.139   0.43552897    4.8604622   -102.17982    2.0473826    8.2557733    9.5685031    651.31701
  278100    283.98301      0.13905  -0.97436011    4.5953075   -102.32824    2.0189226    8.1909191    9.5689232    646.22889
  278200    295.79985       0.1391     1.252283    3.9083654   -102.56351    2.1029323    8.2884872    9.5693432     653.9553
  278300    267.74406      0.13915   -0.8184274    4.2109439   -102.62793     1.903475    8.1200175    9.5697633    640.69129
  278400    271.52443       0.1392    -1.028485    5.6707951   -102.69816    1.9303508     8.337457    9.5701834    657.87673
  278500    271.86816      0.13925    2.5277378    5.7797806   -102.20054    1.9327945    8.2879148    9.5706034    653.99625
  278600     274.0256       0.1393   -1.6415415    4.1129223   -101.85841    1.9481324     8.085718    9.5710235    638.06898
  278700    286.63444      0.13935  -0.84913674    3.5080285   -101.99809    2.0377725    8.3627663    9.5714435    659.96068
  278800    339.84368       0.1394    2.2223783    3.7454089   -102.33894    2.4160534    8.2298053    9.5718636    649.49636
  278900    307.61916      0.13945   -1.3995716    4.8778027   -102.52979    2.1869594    8.1821821    9.5722837    645.76627
  279000    283.87498       0.1395 -0.089417709    5.5844003   -102.69956    2.0181547     8.292345    9.5727037    654.48944
  279100    281.32705      0.13955   0.74614147    5.4536703   -102.48121    2.0000406    8.1789349    9.5731238    645.56665
  279200    314.06784       0.1396   -1.0633375    4.6545763   -102.44371     2.232805    8.3121206    9.5735438    656.10784
  279300    270.85147      0.13965    1.0840325     4.670998   -102.04395    1.9255665    8.2932108    9.5739639    654.64394
  279400     372.0569       0.1397  -0.49816183    5.0205489   -102.42791    2.6450671    8.2743544    9.5743839    653.18412
  279500    305.50237      0.13975   0.51892994    4.6363397   -101.93845    2.1719104    8.2748535     9.574804    653.25218
  279600     339.8525       0.1398  -0.52467426    4.2435356   -102.41184    2.4161161    8.1956386    9.5752241      647.027
  279700    307.75784      0.13985   0.33510874    4.4160034   -102.57787    2.1879453    8.2039553    9.5756441      647.712
  279800    305.78337       0.1399  -0.64353443    5.4524582   -102.71688    2.1739082    8.2458725    9.5760642    651.04997
  279900      268.288      0.13995   0.75197403    5.4680922   -102.53979     1.907342    8.3044482    9.5764842    655.70356
  280000    256.53041         0.14  -0.32044816    5.6106165   -102.15292    1.8237537    8.2236171    9.5769043    649.34977
  280100    295.52581      0.14005  -0.28803303    5.0462132   -101.95245     2.100984    8.2655012    9.5773244    652.68563
  280200    330.01582       0.1401   0.83150213    3.8618666   -102.13946    2.3461841    8.3040054    9.5777444    655.75488
  280300    314.66975      0.14015  -0.64469652    5.0752139   -102.54023    2.2370841    8.2141243    9.5781645    648.68554
  280400    278.08499       0.1402   0.17138978    5.2490006   -102.53905    1.9769918    8.2599864    9.5785845    652.33597
  280500    310.35923      0.14025   0.10585793    4.5574152   -102.65694    2.2064394    8.2351625    9.5790046    650.40401
  280600    307.39528       0.1403 -0.030970376    5.7603127   -102.40251    2.1853677    8.1941565    9.5794246    647.19379
  280700    331.63175      0.14035  -0.60593049    5.3969642   -102.17036    2.3576723    8.2708912    9.5798447    653.28312
  280800    350.28753       0.1404    0.6743957    5.5462417   -101.87308    2.4903019    8.2871069    9.5802648    654.59263
  280900    310.24867      0.14045   0.43341361    5.2433509   -101.66601    2.2056534    8.2264594    9.5806848    649.83062
  281000    330.68736       0.1405   -1.3444028    4.8151379   -102.06556    2.3509583    8.1921646    9.5811049    647.14995
  281100    302.93256      0.14055   0.88881512    4.5869991   -102.17529    2.1536408    8.3136146    9.5815249    656.77284
  281200    317.74068       0.1406   0.45675433    4.4726524   -102.43205    2.2589164    8.1927575     9.581945    647.25354
  281300    290.99936      0.14065   -1.0842586    4.7929812   -102.45259     2.068804    8.2258574     9.582365    649.89702
  281400    262.77411       0.1407   0.43034546    4.4506674   -102.20837    1.8681421    8.3100876    9.5827851    656.58054
  281500    384.89769      0.14075   0.41545837    4.9276808   -102.32794    2.7363562    8.1724183    9.5832052    645.73159
  281600    261.89286       0.1408  -0.82993731    3.8648627   -101.54349     1.861877     8.238954    9.5836252    651.01734
  281700    261.50655      0.14085   0.34455073    4.5362262    -101.8349    1.8591306    8.3293431    9.5840453    658.18847
  281800    304.91032       0.1409     0.853566    5.6700471   -102.40408    2.1677014    8.2165808    9.5844653     649.3064
  281900    277.97367      0.14095   -1.2268472    3.9640458   -102.55502    1.9762004    8.1929712    9.5848854    647.46905
  282000    259.90882        0.141   0.82997607    5.2695458   -102.41453    1.8477719    8.2853887    9.5853055    654.80126
  282100    352.68562      0.14105  -0.71208856    4.8306928   -102.31934    2.5073507    8.1938887    9.5857255    647.59831
  282200    370.16833       0.1411   0.45232579    4.7396623   -102.42808    2.6316406    8.2478732    9.5861456    651.89351
  282300    311.94331      0.14115 -0.0049050925    5.1010938   -102.37078    2.2177011    8.2756908    9.5865656    654.12081
  282400    272.76541       0.1412  -0.11179723    5.2340183   -102.38467    1.9391733    8.2474269    9.5869857    651.91536
  282500    311.25789      0.14125   0.42746489     5.443187   -102.63592    2.2128282    8.2211898    9.5874057    649.86993
  282600    369.37263       0.1413  -0.88539885    4.1904693   -102.37832    2.6259838    8.2937305    9.5878258    655.63287
  282700    342.09706      0.14135    1.4273896    4.4809116   -102.14518    2.4320734    8.2966571    9.5882459    655.89295
  282800    333.71651       0.1414   -1.0517129    5.6923541   -102.32463    2.3724934    8.1063714    9.5886659    640.87797
  282900    319.66423      0.14145  -0.50072358    4.5797264   -102.50569    2.2725915    8.2746328     9.589086    654.20913
  283000    294.89239       0.1415    1.0500872     4.811414   -102.60355    2.0964808    8.2222707     9.589506    650.09776
  283100    249.05152      0.14155  -0.48462318    5.7038076    -102.7424     1.770584     8.222522    9.5899261     650.1461
  283200    214.35076       0.1416 -0.033112162    4.6167978   -102.71655    1.5238856    8.2808959    9.5903462    654.79035
  283300    270.22275      0.14165  -0.25331208     4.442395   -102.65913    1.9210968    8.2789476    9.5907662    654.66496
  283400    234.49696       0.1417   0.88862305    5.4801939   -102.15987    1.6671111    8.3229119    9.5911863    658.17031
  283500    324.06239      0.14175  -0.14907403    4.5294777   -102.44206    2.3038593    8.1984721    9.5916063    648.35808
  283600    364.63538       0.1418  -0.71284622    4.4596143   -102.47929    2.5923052    8.1700201    9.5920264    646.13631
  283700    343.27291      0.14185   0.45633033     4.063095    -102.1374    2.4404328    8.2359343    9.5924464    651.37774
  283800    367.90874       0.1419  -0.15587533    4.4591894    -102.0693    2.6155766    8.2452687    9.5928665    652.14455
  283900    314.87759      0.14195 0.0073902518    5.0138118   -102.41848    2.2385618    8.2891084    9.5932866    655.64069
  284000    254.57627        0.142   0.43187447    5.0796327   -102.19987    1.8098611    8.2324825    9.5937066    651.19028
  284100     307.5526      0.14205  -0.84681514    5.7418432   -102.44646    2.1864861    8.2665802    9.5941267    653.91604
  284200    276.49766       0.1421    1.1090029    4.0859868   -102.12796     1.965707    8.2512156    9.5945467    652.72922
  284300    269.27177      0.14215  -0.71034444    4.4543293   -101.87439    1.9143359     8.200165    9.5949668    648.71917
  284400    335.71116       0.1422   0.30037989     4.841833   -102.00618     2.386674    8.2673321    9.5953869    654.06142
  284500    347.23272      0.14225  -0.22344357    4.3629987   -101.91487    2.4685843    8.1883191    9.5958069    647.83875
  284600    273.09755       0.1423  0.071943532    4.5557004   -101.77842    1.9415346    8.2544053     9.596227     653.0959
  284700    286.48718      0.14235  0.041512777     5.438116   -102.34429    2.0367256    8.2155252     9.596647    650.04813
  284800    279.62955       0.1424 -0.049093267    5.0769582   -102.41064    1.9879726    8.2736748    9.5970671    654.67783
  284900    308.22537      0.14245   0.23470291    5.1232035   -102.69842    2.1912691    8.2726799    9.5974871    654.62776
  285000    315.64674       0.1425  -0.10502117    4.1892958     -102.422    2.2440299    8.2201684    9.5979072    650.50093
  285100    343.19633      0.14255   -0.2716334    3.9538855   -102.06999    2.4398884     8.310252    9.5983273    657.65845
  285200    311.55915       0.1426   0.85542002    3.9190264   -101.95002      2.21497    8.2067845    9.5987473    649.49865
  285300    265.83948      0.14265  -0.91262098    5.4415306   -102.00455    1.8899347    8.1888034    9.5991674    648.10395
  285400    272.67458       0.1427   0.33326893    5.7237438    -102.0913    1.9385275    8.2011023    9.5995874    649.10575
  285500    341.48518      0.14275  -0.36910815    4.4916838   -102.65599    2.4277233    8.1899154    9.6000075    648.24869
  285600    271.33118       0.1428  -0.11234844    5.4195727   -102.34263    1.9289769    8.3067384    9.6004275    657.52424
  285700    270.72668      0.14285    1.1102141    5.5675178   -102.10839    1.9246794    8.2424582    9.6008476    652.46465
  285800    302.52572       0.1429   -1.2491028    3.3020778   -102.00224    2.1507485    8.2419637    9.6012677    652.45406
  285900    336.16768      0.14295   0.85463454    4.7096805    -102.2228    2.3899195    8.3491993    9.6016877    660.97201
  286000    332.58679        0.143   0.16885715     6.785073   -102.42742     2.364462    8.1934254    9.6021078     648.6684
  286100    255.92193      0.14305  -0.35915703    5.5044496   -102.14008    1.8194278    8.2019463    9.6025278     649.3714
  286200      290.264       0.1431  -0.19692197    5.1449929   -102.32956    2.0635762    8.1553068    9.6029479    645.70706
  286300    274.98792      0.14315  -0.20612619    4.9597968   -102.04126    1.9549738    8.2080472     9.603368    649.91128
  286400    360.35358       0.1432   0.59185029    4.4060789   -102.48406    2.5618646     8.181747     9.603788    647.85717
  286500    272.61398      0.14325  -0.85262615    2.6926944   -102.09109    1.9380968    8.2603054    9.6042081    654.10629
  286600    279.04756       0.1433   0.70237568    5.0821783   -102.57375     1.983835    8.2770782    9.6046281    655.46313
  286700      252.263      0.14335   0.14411876    6.9980452   -102.80368    1.7934154    8.2766279    9.6050482    655.45615
  286800    318.36387       0.1434  -0.37280179    5.2252578   -102.94959    2.2633468    8.2317808    9.6054682    651.93305
  286900    284.87802      0.14345   0.39968862    4.6458752   -102.31833    2.0252856     8.204065    9.6058883    649.76645
  287000    304.12724       0.1435  -0.82318625    6.4000042   -102.22441    2.1621342    8.2195597    9.6063084    651.02211
  287100    341.40319      0.14355    1.0374597    3.9398102   -102.36045    2.4271404    8.2850755    9.6067284    656.23992
  287200    310.91753       0.1436  -0.55265941    3.8836489    -102.2973    2.2104085    8.1867203    9.6071485     648.4778
  287300     259.9886      0.14365  -0.23580933    5.5665334   -102.51847    1.8483391     8.239512    9.6075685    652.68802
  287400    282.06893       0.1437   0.63484688    5.1277568   -102.62949    2.0053149     8.257856    9.6079886    654.16973
  287500    309.31867      0.14375  -0.30431635    5.1050571   -102.49722    2.1990417    8.1970558    9.6084087    649.38166
  287600    289.83551       0.1438  -0.26921681     4.792638   -102.16306    2.0605299    8.2104975    9.6088287    650.47496
  287700    292.95199      0.14385   0.47431302    3.5004952    -102.1488     2.082686    8.2449629    9.6092488    653.23403
  287800    333.46086       0.1439 -0.072421029    4.4611984   -102.51937     2.370676    8.1756098    9.6096688    647.76762
  287900    247.25289      0.14395  -0.37841419    4.8082623   -102.04191    1.7577969    8.2021312    9.6100889    649.89737
  288000    308.65096        0.144   0.18162762    5.9865189   -102.13738    2.1942947    8.2022472    9.6105089    649.93496
  288100    364.80912      0.14405   0.26687538    4.1744908   -102.02452    2.5935404    8.2330671     9.610929    652.40561
  288200    278.84286       0.1441  -0.18949675     3.172019   -101.50364    1.9823798    8.2357468    9.6113491    652.64647
  288300    378.17517      0.14415  -0.22282936    4.1619475   -102.32777    2.6885638    8.1986035    9.6117691    649.73143
  288400    308.24523       0.1442   0.15940648     4.690296   -102.27198    2.1914102    8.2692619    9.6121892    655.35967
  288500    268.60891      0.14425   0.60822174    5.2340375   -102.33859    1.9096235    8.2259725    9.6126092    651.95737
  288600    283.52104       0.1443  -0.86520149    5.8945842   -102.40869    2.0156384    8.1703954    9.6130293    647.58085
  288700    371.08083      0.14435   0.31122739    5.6547107   -102.55096    2.6381279    8.2558254    9.6134493    654.38058
  288800    322.58528       0.1444   0.29990832     5.225557   -102.08376    2.2933581    8.2757078    9.6138694    655.98518
  288900     228.7028      0.14445   -0.3146391    4.5470015    -101.8138    1.6259187    8.2020287    9.6142895    650.17331
  289000    303.47254       0.1445  -0.14434302    5.6059799   -102.89621    2.1574797    8.2416506    9.6147095    653.34268
  289100    236.40444      0.14455   0.46798636    4.9683071   -102.43624    1.6806719    8.3328678    9.6151296    660.60263
  289200    292.18369       0.1446   0.30120191    5.7534448   -102.54877    2.0772238    8.1721154    9.6155496      647.887
  289300    269.50742      0.14465   -1.3369115    5.3273323   -102.09292    1.9160113    8.2122077    9.6159697    651.09396
  289400    300.02969       0.1447   0.98025767    5.3286078   -102.02567    2.1330035    8.3043651    9.6163898    658.42931
  289500    285.61544      0.14475   0.35654386    5.3485049   -101.99931    2.0305282    8.2053101    9.6168098    650.60393
  289600    282.59035       0.1448  -0.50536517    4.9549784   -102.06737    2.0090219    8.1926166    9.6172299    649.62583
  289700    297.83319      0.14485  -0.20103008    3.8088213   -102.31669    2.1173878    8.2209743    9.6176499     651.9029
  289800    280.34675       0.1449   0.42038711    5.0286803   -102.38567    1.9930714    8.2127725      9.61807    651.28097
  289900    288.59117      0.14495  -0.29645565    5.4899771   -102.63285    2.0516835    8.1923054      9.61849    649.68628
  290000    275.81769        0.145  -0.37664779    5.0551297   -102.55995    1.9608729    8.2562426    9.6189101    654.78538
  290100    288.95599      0.14505   0.80024469    4.6383072   -102.18701    2.0542771    8.2435723    9.6193302    653.80907
  290200    318.00119       0.1451  -0.55545351    4.5053828   -102.06821    2.2607684    8.2032051    9.6197502     650.6359
  290300    335.02047      0.14515    0.2643207    5.7244907   -102.35199    2.3817637    8.3241001    9.6201703     660.2535
  290400    242.17103       0.1452   0.26585834    5.7205533   -102.04371    1.7216684    8.1895618    9.6205903    649.61052
  290500     325.5203      0.14525  -0.44281121    4.9119188   -102.49159     2.314224     8.218353    9.6210104    651.92274
  290600    317.45184       0.1453   0.12430937     5.026474   -102.16248    2.2568629    8.2274963    9.6214305    652.67654
  290700    336.23041      0.14535  -0.25548535     4.187941   -101.53748    2.3903656    8.2602239    9.6218505    655.30138
  290800    335.93765       0.1454   0.60621042    4.7950253   -101.70297    2.3882842    8.2530834    9.6222706    654.76349
  290900    313.97628      0.14545  0.046422928    4.7381179   -101.96752    2.2321541    8.1934473    9.6226906     650.0606
  291000    316.11642       0.1455   -1.1642086    4.3163581   -102.25164     2.247369    8.2640582    9.6231107    655.69143
  291100    294.21013      0.14555    1.2900696    5.5630802   -102.17158    2.0916304    8.2668873    9.6235307    655.94453
  291200    283.43235       0.1456  -0.50215935    6.2065606    -102.1835    2.0150078    8.2242057    9.6239508     652.5864
  291300     262.0828      0.14565  -0.16757208    5.9097546    -102.5152    1.8632273    8.2708517    9.6243709    656.31638
  291400    262.88691       0.1457   0.37173008    4.2742365    -102.6485     1.868944    8.2006674    9.6247909    650.77545
  291500    250.48696      0.14575   -0.2287276    4.3326075    -102.1627     1.780789    8.2490065     9.625211    654.64004
  291600    295.57696       0.1458   0.24663632    5.1467252   -102.21493    2.1013477    8.2619666     9.625631    655.69716
  291700    296.52012      0.14585  -0.40168584     5.701705   -102.12326    2.1080528    8.2115728    9.6260511    651.72618
  291800     315.3092       0.1459   0.19443798    6.4500289   -102.19063    2.2416302    8.2608358    9.6264711    655.66464
  291900    282.45933      0.14595   0.56197755     5.935386   -102.02183    2.0080904    8.2791699    9.6268912     657.1485
  292000    303.22338        0.146  -0.61322457     4.886691   -102.14301    2.1557084    8.1267196    9.6273113     645.0761
  292100    288.69062      0.14605  -0.45339124    3.5396657   -102.00725    2.0523905    8.2370278    9.6277313    653.86058
  292200    316.63488       0.1461    1.3137379    4.2857311   -101.80084    2.2510549    8.1887184    9.6281514     650.0541
  292300    292.79151      0.14615  -0.98042524    4.3994061   -101.58076     2.081545     8.199414    9.6285714    650.93157
  292400    318.72638       0.1462   0.14502447    6.0883257    -102.1311     2.265924    8.2444157    9.6289915     654.5327
  292500    312.38035      0.14625  -0.11806424     6.437009   -102.71287    2.2208081    8.2480141    9.6294116    654.84694
  292600    265.28688       0.1463   0.51924386     6.026807   -102.37455    1.8860061    8.2871249    9.6298316    657.98082
  292700    279.86033      0.14635  -0.47881583    4.6614402   -102.16505    1.9896133    8.1904073    9.6302517    650.33001
  292800    271.48522       0.1464   0.20115146    3.6734548    -101.8016    1.9300721    8.1665457    9.6306717    648.46365
  292900    318.79348      0.14645  -0.43844867    4.2156976   -101.90321     2.266401    8.3267384    9.6310918    661.21257
  293000    373.36515       0.1465    1.4486104    4.9529894   -102.23071    2.6543678    8.2502885    9.6315118    655.17039
  293100    297.73104      0.14655   -1.5834148    4.9677184   -102.07749    2.1166616    8.1415389    9.6319319    646.56258
  293200    307.69461       0.1466   0.43911367    5.2027915   -102.46813    2.1874957    8.3078388     9.632352     659.7981
  293300    325.38659      0.14665    0.5989095    5.0112596   -102.61782    2.3132735    8.2607655     9.632772    656.08822
  293400    276.04615       0.1467   -1.0027802    4.5981361   -102.19876    1.9624971    8.1886886    9.6331921    650.39207
  293500    337.97003      0.14675    0.3944833    4.6745628   -102.20038    2.4027331    8.3820052    9.6336121     665.7754
  293600     308.8091       0.1468    1.1335411    4.7457811   -101.84005     2.195419    8.2606908    9.6340322    656.16811
  293700    342.97092      0.14685   -1.1843458    5.0546139   -102.20631    2.4382859    8.1688086    9.6344523    648.89796
  293800    248.03524       0.1469  -0.44610752    5.3224356   -102.24128    1.7633589    8.3237915    9.6348723    661.23802
  293900    245.89061      0.14695    1.4638874    5.7806168   -102.22557     1.748112    8.2586305    9.6352924    656.09027
  294000    297.29759        0.147   -1.2314942    6.1766692   -102.25056    2.1135801    8.1568349    9.6357124    648.03156
  294100    275.93204      0.14705   0.41200592    4.5674022   -101.78827    1.9616859    8.2760861    9.6361325    657.53432
  294200    359.27138       0.1471  0.085826961    4.5796145   -102.00987    2.5541709    8.2431264    9.6365525    654.94422
  294300    306.12978      0.14715   0.02722005    4.6117986   -101.81724    2.1763709    8.2242597    9.6369726    653.47368
  294400    280.99746       0.1472 0.0041619384    5.2899344   -102.29459    1.9976975    8.1840425    9.6373927    650.30649
  294500    299.04104      0.14725  -0.62932028    5.4936878   -102.62626    2.1259749    8.2517163    9.6378127    655.71245
  294600    267.84443       0.1473    1.0611797    6.8529896   -102.42719    1.9041886    8.2751415    9.6382328    657.60256
  294700    332.91763      0.14735  -0.52351491    5.4240141   -102.38554     2.366814     8.135368    9.6386528    646.52333
  294800    285.07379       0.1474  -0.13039213    4.7177334   -101.73422    2.0266774    8.2199157    9.6390729    653.27086
  294900    344.96747      0.14745 -0.097293926    4.0250467   -102.00364      2.45248     8.224874    9.6394929     653.6934
  295000    320.03028       0.1475   0.57338449    5.0180182    -102.1455    2.2751938    8.2988872     9.639913    659.60454
  295100    259.75585      0.14755  -0.19896206    5.3471079   -101.95769    1.8466843    8.1211963    9.6403331     645.5096
  295200     323.0421       0.1476   -1.0058975     4.829645   -102.28978    2.2966058    8.3058792    9.6407531     660.2178
  295300    338.90513      0.14765     1.711489    5.1612249   -102.12489    2.4093809    8.3068472    9.6411732    660.32352
  295400    367.75031       0.1477   -1.0262377    5.9288116   -102.23984    2.6144502    8.1337382    9.6415932      646.591
  295500    316.28932      0.14775  -0.12464725    4.6967428   -102.04802    2.2485982    8.2588351    9.6420133    656.56417
  295600    263.15852       0.1478    1.2449906    4.0528875   -101.73527    1.8708749    8.1461881    9.6424334    647.63713
  295700    361.16169      0.14785   -2.3902031    4.9222128    -102.2885    2.5676097    8.2481004    9.6428534    655.76792
  295800    270.82405       0.1479    2.0812888    5.5023419   -101.80655    1.9253716     8.359461    9.6432735    664.65063
  295900    285.71415      0.14795  -0.50099858    4.9880717   -102.14317    2.0312299    8.1494792    9.6436935    647.98346
  296000    294.18281        0.148  -0.47015234    5.2905678    -102.4634    2.0914362    8.2197818    9.6441136    653.60184
  296100    278.74435      0.14805   0.61121681    6.3507759    -102.4403    1.9816794    8.2809461    9.6445336    658.49404
  296200    321.90858       0.1481  -0.29068014    5.4427138   -102.62227    2.2885473    8.1711767    9.6449537    649.79357
  296300    234.66183      0.14815   -0.1328977    4.6764442   -101.60585    1.6682833    8.2218996    9.6453738    653.85566
  296400    377.13262       0.1482  -0.11827308     4.605766   -102.14945    2.6811519    8.2187875    9.6457938    653.63663
  296500    317.70196      0.14825   0.42413214    4.9548466   -101.99062    2.2586411    8.3090008    9.6462139    660.84004
  296600    305.81273       0.1483  0.083985839    4.4299072   -102.19297    2.1741169    8.1815876    9.6466339    650.73481
  296700    267.59368      0.14835  -0.59125302    5.0346023    -102.0152    1.9024059    8.2583345     9.647054     656.8676
  296800    360.90638       0.1484   0.98119807    5.1771674   -102.18171    2.5657946    8.1640019    9.6474741    649.39266
  296900    324.95996      0.14845   -1.2431417    4.9669409   -101.71754    2.3102405    8.3066568    9.6478941    660.76869
  297000    292.85898       0.1485    1.3849528    4.9290096   -101.80122    2.0820247    8.2137881    9.6483142    653.40972
  297100    255.00287      0.14855   -1.7892294    5.7484545   -102.01395     1.812894    8.2076435    9.6487342    652.94934
  297200    215.28204       0.1486    1.4007576    4.3223816   -102.15814    1.5305063    8.3375554    9.6491543    663.31321
  297300    216.81458      0.14865  0.097315236    5.5092316   -102.79802    1.5414016    8.1718768    9.6495743    650.16057
  297400    225.81364       0.1487   -1.2778114    6.4721247   -102.76416    1.6053787    8.2955759    9.6499944    660.03089
  297500    279.46273      0.14875    1.3593558    6.0182311   -102.65384    1.9867866    8.2463614    9.6504145    656.14374
  297600    279.99396       0.1488   -0.8642342    5.3292388   -102.17916    1.9905633    8.2292167    9.6508345    654.80808
  297700    279.34401      0.14885   0.69572198     5.808529   -101.76893    1.9859426    8.2535963    9.6512546    656.77658
  297800    356.72962       0.1489  -0.75076925     4.247531   -102.20936    2.5361007    8.2157681    9.6516746    653.79486
  297900    263.61671      0.14895   0.43144848     4.801417   -101.99768    1.8741324    8.2868013    9.6520947    659.47625
  298000    257.49263        0.149   0.52828468    4.8737496   -102.02781    1.8305944    8.1367354    9.6525148    647.56196
  298100    337.07998      0.14905   -1.4532711    4.4902881   -102.36804    2.3964054    8.1982816    9.6529348     652.4885
  298200    293.50492       0.1491    1.0105034    5.1354307   -101.95313    2.0866169    8.3193479    9.6533549     662.1528
  298300    327.40107      0.14915    0.1368391     5.184927   -102.08087     2.327595    8.2068421    9.6537749    653.22667
  298400    327.68092       0.1492   -1.0578688    5.5676786   -102.41867    2.3295846    8.2679688     9.654195    658.12071
  298500    262.48736      0.14925    1.3196851    4.6938958   -102.19285    1.8661035    8.2812783     9.654615    659.20881
  298600    296.66165       0.1493  -0.83843369    4.5743913   -102.32597     2.109059    8.2197086    9.6550351    654.33618
  298700    316.61768      0.14935   0.43482565    5.4230856    -102.3057    2.2509326    8.2555411    9.6554552    657.21725
  298800    291.21244       0.1494  0.096208269    5.3130482   -101.90582     2.070319    8.2255316    9.6558752    654.85671
  298900     324.8423      0.14945  -0.50812993    5.3998519   -101.46566     2.309404    8.2414387    9.6562953    656.15166
  299000    352.82288       0.1495   0.59014123    6.1785938   -101.50595    2.5083265    8.2402344    9.6567153    656.08432
  299100    336.01121      0.14955  -0.47340386    4.9645929   -101.90282    2.3888072    8.3442554    9.6571354    664.39533
  299200    303.96379       0.1496   0.62159471    4.0064304   -102.00201    2.1609722    8.2243431    9.6575554    654.87603
  299300    318.70073      0.14965  -0.56426994    4.5610927   -102.33501    2.2657417    8.2139042    9.6579755    654.07326
  299400    299.62923       0.1497   0.23957091    5.1784355   -102.44757    2.1301565    8.2476591    9.6583956    656.78973
  299500    268.57213      0.14975  -0.38075421    6.2890959   -102.10555     1.909362    8.2165094    9.6588156    654.33763
  299600    308.80644       0.1498   0.81116526    6.3062481   -101.79807    2.1954001    8.2212804    9.6592357    654.74604
  299700    321.99807      0.14985   -1.1905136    4.6681717   -101.86018    2.2891834    8.2351528    9.6596557    655.87937
  299800    361.05893       0.1499    1.1318587    5.7715949   -102.31111    2.5668791     8.322147    9.6600758    662.83675
  299900    323.29868      0.14995  -0.48153633    5.0974899   -102.33384    2.2984299    8.1883295    9.6604959     652.2069
  300000     251.7401         0.15  -0.25644406    5.6135878   -102.09016    1.7896979    8.2931516    9.6609159    660.58478
  300100    254.93424      0.15005     1.174843    5.2477212   -102.24327     1.812406    8.1786735     9.661336    651.49444
  300200    283.80055       0.1501   -1.4358868    4.7670246   -102.14381    2.0176255    8.2313005     9.661756     655.7151
  300300    329.55989      0.15015    1.0372914    4.6427234   -101.93301    2.3429428    8.1686062    9.6621761    650.74909
  300400    367.01322       0.1502   -1.4215024    5.1654602   -102.19173      2.60921    8.1999517    9.6625961    653.27461
  300500    236.92028      0.15025     1.224229    5.6547865   -101.60672    1.6843393    8.3259976    9.6630162    663.34529
  300600     281.2981       0.1503  -0.10737316    4.8228005   -101.86714    1.9998349    8.2328906    9.6634363    655.95582
  300700    314.91681      0.15035  -0.60963816    5.4830288   -101.94768    2.2388406    8.3065881    9.6638563    661.85644
  300800    295.75721       0.1504     1.660109    5.3214714   -102.13819    2.1026291    8.2307078    9.6642764    655.83892
  300900    282.48959      0.15045    -2.239991    4.6207119   -102.33189    2.0083055    8.1368366    9.6646964    648.38726
  301000    278.23871       0.1505    1.2197751    5.7612152   -102.15414    1.9780847    8.3247464    9.6651165    663.38977
  301100    284.42963      0.15055   0.16083998    5.7982811   -101.70149    2.0220978    8.1721525    9.6655366    651.25803
  301200    310.20028       0.1506   -1.1953692    4.8685331    -101.8639    2.2053093    8.2487938    9.6659566    657.39432
  301300     328.1591      0.15065    1.2967784    4.9937936   -102.09946    2.3329841    8.3220942    9.6663767    663.26488
  301400    314.66744       0.1507   -0.3887321    4.3348991   -102.09826    2.2370678    8.1621032    9.6667967    650.54198
  301500    310.09052      0.15075  -0.85931345    5.4652627    -102.1687     2.204529    8.3382082    9.6672168    664.60691
  301600     309.4069       0.1508    1.8188892    5.5987586   -102.29055     2.199669    8.2114678    9.6676368    654.53335
  301700    232.53769      0.15085   -1.6991082    6.3334674   -101.86501    1.6531821    8.2304913    9.6680569    656.07822
  301800    314.52408       0.1509   0.98784659    6.0284319   -102.08382    2.2360486    8.2660509     9.668477    658.94141
  301900    387.80977      0.15095  -0.31432519    4.6302381   -102.14858    2.7570591    8.1923452     9.668897    653.09422
  302000    267.11152        0.151  0.049531177      4.49297   -101.69609    1.8989781    8.2237298    9.6693171    655.62468
  302100     261.6344      0.15105  -0.18825557    4.1906002   -101.77407    1.8600395    8.2038434    9.6697371    654.06768
  302200    338.09059       0.1511  0.064593637    3.9047654   -102.10569    2.4035901    8.2489663    9.6701572    657.69377
  302300    318.29951      0.15115 -0.017930982    5.8794018   -101.86335    2.2628893    8.2627329    9.6705772       658.82
  302400    339.81635       0.1512  -0.13877049    6.4395519   -102.00705    2.4158591    8.2842336    9.6709973    660.56303
  302500    286.52484      0.15125   0.40939733    5.5680862   -102.05978    2.0369933    8.2733613    9.6714174    659.72475
  302600    290.25164       0.1513  0.057734205    4.9087396   -102.21441    2.0634883    8.2122815    9.6718374    654.88264
  302700    266.10516      0.15135  -0.48859272    4.7110681   -102.10544    1.8918235    8.1857703    9.6722575    652.79687
  302800    216.72514       0.1514   -0.1564513    4.3300542   -101.76057    1.5407657    8.2821367    9.6726775    660.51056
  302900    314.90697      0.15145    1.3963553    4.7459743   -101.96327    2.2387706    8.2134513    9.6730976    655.06126
  303000    349.36419       0.1515   -1.7173945    6.1420573   -101.90781    2.4837376    8.2315007    9.6735177    656.52929
  303100    304.50609      0.15155   0.61101224    5.7630845   -101.83371    2.1648276     8.289584    9.6739377    661.19062
  303200    262.86672       0.1516   0.96391151    4.7796907   -101.97535    1.8688004    8.2541523    9.6743578    658.39311
  303300    293.79165      0.15165   -1.0805588    5.0832649   -102.16694    2.0886554    8.1075491    9.6747778    646.72738
  303400    255.53511       0.1517   -0.1462135    4.6466148   -101.82001    1.8166778    8.2937357    9.6751979    661.60793
  303500     257.2647      0.15175   0.77313561     5.250775   -101.66747     1.828974    8.2079281    9.6756179    654.79132
  303600    322.46277       0.1518  -0.72435674    4.5305956   -102.08359    2.2924872    8.2261306     9.676038    656.27192
  303700     297.8763      0.15185   0.89830172    5.8182678    -102.1135    2.1176943     8.245734    9.6764581    657.86442
  303800     280.5898       0.1519   -1.1039856    5.8529722   -102.14101    1.9947993    8.1926094    9.6768781    653.65439
  303900    282.02402      0.15195   0.46746614    5.4050991   -102.19215    2.0049956    8.3048022    9.6772982    662.63455
  304000    292.02908        0.152   0.88869377    5.6497007   -102.09183    2.0761247    8.1946812    9.6777182    653.87645
  304100    297.80045      0.15205   -1.4752838    5.5920746   -101.83979    2.1171551    8.2059653    9.6781383    654.80526
  304200    322.17191       0.1521   0.70246989    3.8072076   -101.82547    2.2904193    8.2831934    9.6785584    660.99646
  304300    390.59331      0.15215   0.53904976    4.2720481   -101.95593    2.7768481    8.2159831    9.6789784    655.66155
  304400    281.72573       0.1522   -1.5823155    5.6147703   -101.52994     2.002875    8.2202337    9.6793985    656.02924
  304500    276.25199      0.15225    1.4180536     6.796802    -101.9449    1.9639605    8.3744328    9.6798185    668.36435
  304600     313.4443       0.1523  -0.23898294    5.6862328   -102.32012     2.228372    8.1790213    9.6802386    652.79687
  304700    286.17965      0.15235  -0.31497561    6.5682417   -102.19147    2.0345393    8.2655297    9.6806586    659.73004
  304800    281.78287       0.1524   0.75735212    3.8045161   -102.05471    2.0032812    8.2400565    9.6810787    657.72538
  304900    307.89426      0.15245  -0.55585836    3.7507329   -101.63018    2.1889151    8.1435256    9.6814988    650.04844
  305000    348.93425       0.1525  -0.51872008    5.7860009   -101.78666    2.4806811    8.2775365    9.6819188    660.77439
  305100    289.34487      0.15255    1.3707639    5.3738532   -101.87437    2.0570418    8.2557271    9.6823389    659.06199
  305200    325.84033       0.1526   -1.2667067    6.0529698   -102.28575    2.3164993    8.1526938    9.6827589    650.86499
  305300    304.39268      0.15265   0.20015149     5.558661   -102.10589    2.1640213    8.2849138     9.683179    661.44938
  305400    314.09179       0.1527    0.6465606    5.7244583   -102.06819    2.2329752    8.2586332     9.683599    659.37979
  305500     267.9504      0.15275   -0.4090536    5.2121144   -101.78803    1.9049419    8.2343379    9.6840191    657.46855
  305600    225.19765       0.1528  -0.11605111    4.8175183   -101.80266    1.6009994    8.2393341    9.6844392    657.89601
  305700    270.06254      0.15285    0.4102055    6.2566285   -102.21471    1.9199578    8.2189079    9.6848592    656.29348
  305800    371.09642       0.1529  -0.78391884    6.5788453    -102.5481    2.6382387    8.2378097    9.6852793    657.83135
  305900    318.46313      0.15295   0.74086966    5.9128102   -101.85966    2.2640525    8.2845016    9.6856993    661.58863
  306000    333.23864        0.153  -0.11065799    6.1718427   -101.97503    2.3690961    8.2157083    9.6861194    656.12335
  306100    248.18645      0.15305  -0.78058442    6.0990633   -101.99872    1.7644339    8.2685921    9.6865395    660.37539
  306200    263.52445       0.1531    1.2813318    5.0545375    -102.1288    1.8734764    8.3074902    9.6869595    663.51078
  306300    272.21355      0.15315  -0.45603608    5.0127159   -102.11209      1.93525     8.182611    9.6873796    653.56515
  306400    357.64424       0.1532  -0.72158371    6.0344195   -102.53311    2.5426031    8.2644493    9.6877996    660.13039
  306500    304.99067      0.15325    1.1187982    5.6963521   -102.08292    2.1682726    8.2598658    9.6882197    659.79288
  306600    362.97869       0.1533  -0.48471758    4.8299927   -101.78375    2.5805273     8.151272    9.6886397    651.14671
  306700    320.65891      0.15335  -0.50012529    4.9431663   -101.29253    2.2796629    8.2082895    9.6890598    655.72986
  306800    256.62964       0.1534   0.70459593    5.6579093   -101.28358    1.8244591    8.2031956    9.6894799    655.35134
  306900    305.49006      0.15345  -0.39928768    4.7541522   -101.96468    2.1718229    8.2052084    9.6898999    655.54056
  307000     338.9465       0.1535  0.090990159    4.4106191    -102.2765    2.4096751    8.1795922      9.69032    653.52233
  307100    323.20338      0.15355  -0.34173209    5.5663524    -102.4194    2.2977524    8.2545762      9.69074    659.54189
  307200    216.09374       0.1536   0.53715102    5.9869577   -102.23153    1.5362769    8.2431872    9.6911601    658.66045
  307300    250.67199      0.15365 -0.089653779    5.4745205   -102.27043    1.7821044    8.2614403    9.6915802    660.14756
  307400    283.40449       0.1537  -0.15976481    6.4901232   -102.25907    2.0148098    8.2243497    9.6920002    657.21224
  307500    270.09742      0.15375   0.53054068    5.8551093   -101.96938    1.9202058    8.2267221    9.6924203    657.43031
  307600    293.74547       0.1538  -0.83141062    6.8239273   -101.76554     2.088327    8.2201405    9.6928403    656.93282
  307700    348.66714      0.15385   0.60897479    4.2913301   -101.91606     2.478782    8.2749215    9.6932604    661.33944
  307800    290.02354       0.1539   0.39788556    4.8805125   -101.93877    2.0618667    8.1879962    9.6936804    654.42065
  307900    295.16395      0.15395   -1.1280637    6.3150907   -102.11575    2.0984114    8.2080201    9.6941005    656.04947
  308000    238.18365        0.154   0.77922683    5.5419655   -101.68734     1.693321    8.2531183    9.6945206    659.68266
  308100    346.17513      0.15405 -0.031930552    5.3065653   -102.13239    2.4610656    8.1762945    9.6949406    653.57035
  308200    274.50975       0.1541   -0.6235983     5.594661    -101.5764    1.9515743     8.268097    9.6953607     660.9372
  308300    298.42643      0.15415   0.89883048    5.2410163   -101.87449    2.1216054    8.2712608    9.6957807    661.21875
  308400    265.36486       0.1542  -0.61427648    6.5515177   -102.11217    1.8865605    8.1813782    9.6962008    654.06171
  308500    261.07678      0.15425 -0.018864488    5.7693922   -102.23865    1.8560752    8.2515313    9.6966208     659.6987
  308600    246.92804       0.1543   0.52950784    5.9192331   -101.97125    1.7554874    8.2349497    9.6970409    658.40154
  308700    268.64734      0.15435  -0.69772453    5.4322821    -101.4006    1.9098967     8.240865     9.697461    658.90303
  308800    323.04066       0.1544   0.69065643    5.2539721   -101.60174    2.2965955    8.2289696     9.697881    657.98042
  308900    370.90217      0.15445  -0.10073961     5.979465   -102.07456    2.6368578    8.2607631    9.6983011    660.55121
  309000    314.76338       0.1545 -0.086715274    5.3798007   -102.09068    2.2377498    8.1842317    9.6987211    654.45991
  309100    293.41003      0.15455  -0.87309136    5.0869533   -102.23255    2.0859423    8.2453119    9.6991412    659.37281
  309200     277.1462       0.1546    1.4041136    6.2735784   -102.11012    1.9703177    8.2508601    9.6995613    659.84507
  309300     289.0389      0.15465  -0.56522757    5.8819626   -102.02806    2.0548665    8.2165076    9.6999813    657.12625
  309400    349.60248       0.1547  -0.56389072    4.5462418   -102.38295    2.4854317    8.2723477    9.7004014     661.6208
  309500    313.63744      0.15475   0.41491173    5.7349675   -101.98884    2.2297451    8.3111112    9.7008214    664.74987
  309600    306.05597       0.1548   0.32003783    6.1884102    -101.5795    2.1758461    8.2896549    9.7012415    663.06244
  309700    358.64487      0.15485   0.42985083    5.2892378   -101.75184    2.5497168      8.23327    9.7016615    658.58091
  309800    295.54516       0.1549  -0.97500562    4.7352598   -101.61054    2.1011216    8.1233517    9.7020816    649.81665
  309900    280.42957      0.15495 -0.093663854    5.5824024   -102.08793    1.9936602    8.2580776    9.7025017    660.62247
  310000    235.56729        0.155    1.0138049    5.9813466   -101.91021    1.6747204    8.2232174    9.7029217    657.86224
  310100    271.91746      0.15505  -0.79907504    4.8111667   -101.94429     1.933145    8.1652356    9.7033418    653.25194
  310200    293.10776       0.1551  -0.19051987    4.2352482   -101.69785    2.0837933     8.254472    9.7037618     660.4198
  310300    331.61281      0.15515   0.43167457    5.2562251   -101.87663    2.3575376    8.2594954    9.7041819    660.85032
  310400    299.55607       0.1552  -0.38019054    6.0103333   -101.85823    2.1296364    8.3176226     9.704602    665.52994
  310500    262.95591      0.15525   0.98539432    5.1180067   -101.77004    1.8694345    8.2655155     9.705022    661.38925
  310600    282.75748       0.1553    -0.531013     5.105597   -102.17126      2.01021     8.247633    9.7054421    659.98689
  310700    277.20576      0.15535  -0.36376506    5.6910553   -102.48985    1.9707411    8.2357826    9.7058621    659.06713
  310800     248.8279       0.1554   0.70277802    6.6147019   -102.20576    1.7689942    8.2302043    9.7062822    658.64923
  310900    329.49805      0.15545  -0.39191978    5.3386618   -102.18561    2.3425031    8.1354571    9.7067022    651.09495
  311000    322.37742       0.1555  -0.60991213    4.7982565   -101.95553    2.2918804    8.2542038    9.7071223    660.62705
  311100    264.69022      0.15555   0.98832638    4.8448282   -101.56506    1.8817643      8.21576    9.7075424    657.57864
  311200    310.84773       0.1556  -0.44351669    5.1464501    -101.7921    2.2099123    8.1398086    9.7079624    651.52778
  311300    328.26658      0.15565  -0.22144786    4.8373341   -101.73396    2.3337483    8.2790773    9.7083825    662.70382
  311400    315.01946       0.1557   0.49048861    4.8668371   -101.70822    2.2395703    8.2322058    9.7088025    658.98047
  311500    244.22624      0.15575  -0.27043538    5.7453847   -101.74224    1.7362796    8.2371273    9.7092226    659.40297
  311600    255.83691       0.1558  -0.25706974     5.784346    -102.0201    1.8188234    8.2535898    9.7096426    660.74942
  311700     287.7089      0.15585    1.0896394    5.4700971   -102.09767    2.0454112    8.2361809    9.7100627    659.38426
  311800    381.02109       0.1559   -1.7313914    6.1657503   -102.22533    2.7087963    8.1965947    9.7104828    656.24339
  311900    289.13818      0.15595    1.2473817    4.4520964   -101.35798    2.0555724    8.3563653    9.7109028    669.06403
  312000    315.32956        0.156   0.72836266    5.7349446   -101.63812    2.2417749    8.1766871    9.7113229    654.70617
  312100    292.32203      0.15605    -1.869861     5.480918   -101.71853    2.0782074    8.1739275    9.7117429    654.51351
  312200    308.08928       0.1561    1.0640235    4.7442193    -102.0868    2.1903016    8.2653751     9.712163    661.86465
  312300    274.50892      0.15615    0.1075203     5.068918    -101.9565    1.9515685    8.2368784    9.7125831    659.61126
  312400    284.29737       0.1562  -0.77809095    5.2976773   -101.93677    2.0211575    8.2489911    9.7130031    660.60982
  312500    306.17693      0.15625    1.1791365    4.8245051   -101.67966    2.1767061     8.266786    9.7134232    662.06353
  312600    359.29423       0.1563   -1.2850638     3.794023   -101.43437    2.5543333      8.19369    9.7138432    656.23785
  312700    320.53572      0.15635   0.92587995    5.7107037    -101.4816    2.2787872    8.3226008    9.7142633    666.59122
  312800    312.18888       0.1564  -0.17432584    5.3367581   -101.82666    2.2194469    8.1858595    9.7146833    655.66741
  312900    298.80595      0.15645  -0.05373284    4.9341335   -102.09009    2.1243035    8.2144873    9.7151034    657.98887
  313000    296.42979       0.1565  -0.48816763    4.4450822   -102.23579    2.1074107    8.2560969    9.7155235    661.35044
  313100    294.74968      0.15655    1.1942967    5.7968955   -102.22257    2.0954663    8.1981723    9.7159435    656.73881
  313200    271.97877       0.1566   -1.1992918    4.9696254   -101.75132    1.9335808    8.1884773    9.7163636    655.99052
  313300     364.9555      0.15665 -0.080910324    5.7349659   -101.70826     2.594581    8.2962813    9.7167836    664.65559
  313400    339.55526       0.1567   0.98975253    5.4462967    -101.8097    2.4140029    8.3105593    9.7172037    665.82825
  313500    268.07653      0.15675  -0.55299261     5.459063   -101.65848    1.9058386    8.2419449    9.7176238    660.35952
  313600    310.72037       0.1568   0.18676566    6.2103606   -102.22247    2.2090068    8.2240988    9.7180438    658.95815
  313700    245.21649      0.15685  -0.28292732    6.3336298   -102.00977    1.7433196    8.1912692    9.7184639    656.35603
  313800    318.43452       0.1569   0.42379016    5.0067692   -102.15783     2.263849    8.1594317    9.7188839     653.8332
  313900    323.35741      0.15695  -0.47936575    4.8852036   -101.66636    2.2988474    8.1487792     9.719304    653.00781
  314000    329.15567        0.157   -0.5045403     6.072679   -101.80023     2.340069    8.2770921     9.719724    663.31891
  314100    322.45418      0.15705     1.535737    5.4245958   -102.00199    2.2924261    8.2852604    9.7201441    664.00222
  314200    243.38128       0.1571   -1.2846192    5.2587107   -101.94598    1.7302725    8.2094272    9.7205642    657.95318
  314300    255.24589      0.15715   0.73024568    6.0095014   -102.05247    1.8146216    8.3091621    9.7209842    665.97531
  314400    261.21863       0.1572   0.22440625    5.5765776   -101.83898    1.8570837    8.2006791    9.7214043    657.30885
  314500    297.03971      0.15725  -0.87616727    4.6265347   -101.78474    2.1117468    8.1845996    9.7218243    656.04838
  314600    324.87193       0.1573   0.31064088    4.5235824   -101.88594    2.3096146    8.2502834    9.7222444    661.34194
  314700     257.1365      0.15735   0.60370812    3.9518462   -101.75212    1.8280625    8.1979752    9.7226645    657.17731
  314800    296.87157       0.1574  -0.81684248    5.6674059   -102.30714    2.1105515    8.2068017    9.7230845    657.91329
  314900    237.41839      0.15745   0.58394203    5.4949327   -102.32777    1.6878805    8.1915726    9.7235046    656.72079
  315000    209.05553       0.1575  -0.45597392    5.9373339   -102.29159    1.4862402    8.1751319    9.7239246    655.43105
  315100    286.31248      0.15755   0.26280867    5.6919207   -102.31675    2.0354836    8.2194129    9.7243447     659.0097
  315200    274.20194       0.1576    0.2564906    5.5756454   -102.03296     1.949386    8.1673208    9.7247647    654.86138
  315300    323.27395      0.15765  -0.61643391    4.9474748   -101.98406    2.2982541    8.1636225    9.7251848    654.59312
  315400    317.45262       0.1577 -0.052570649    6.2589787   -101.70026    2.2568684    8.3051129    9.7256049    665.96717
  315500    315.10772      0.15775   0.46748736    4.6849315   -101.63324    2.2401978    8.3340907    9.7260249    668.31969
  315600    285.83455       0.1578    0.7564442    4.2973133   -101.65319    2.0320858     8.191851     9.726445    656.94171
  315700    296.19555      0.15785    -1.845767    5.2708601   -102.20064    2.1057454    8.1776083     9.726865    655.82785
  315800    279.50338       0.1579    1.2261467    6.3513464   -102.24928    1.9870756    8.3361415    9.7272851    668.57077
  315900    331.31103      0.15795   0.76820757    6.5487924   -102.52516    2.3553922    8.1211927    9.7277051    651.35968
  316000    273.17383        0.158   -2.2932847    7.2337436   -101.97966    1.9420769    8.1835775    9.7281252    656.39159
  316100    348.22046      0.15805    1.3451992     5.783315   -101.75317    2.4756065    8.3067875    9.7285453    666.30284
  316200    308.29755       0.1581   0.13470798      5.18713   -101.40186    2.1917822    8.2432015    9.7289653    661.23104
  316300    302.58968      0.15815  -0.79629531    5.5608939   -101.66224    2.1512032    8.2981232    9.7293854    665.66534
  316400    297.54769       0.1582    1.1560187    4.9126297   -102.09652    2.1153581    8.2922438    9.7298054    665.22242
  316500    267.30117      0.15825  -0.28555409     5.774204   -101.98137    1.9003263     8.132623    9.7302255    652.44545
  316600    303.54497       0.1583  -0.66513702     6.284092   -102.14253    2.1579947    8.2235984    9.7306456     659.7725
  316700    290.19443      0.15835   0.67570724    5.4072285   -101.83977    2.0630816    8.1950386    9.7310656    657.50955
  316800    327.62407       0.1584  -0.18424124    4.8748565   -101.34027    2.3291804    8.1212267    9.7314857    651.61555
  316900    334.69736      0.15845  -0.45144206    4.5020206   -101.39114    2.3794666    8.2068508    9.7319057    658.51412
  317000    345.01149       0.1585   0.64594055    4.0629731   -101.62449     2.452793    8.2259496    9.7323258    660.07509
  317100    317.16211      0.15855  -0.73991365    4.3901749   -101.91064    2.2548031    8.1619338    9.7327458    654.96654
  317200    269.15019       0.1586   0.26879503    7.0718992   -101.81622    1.9134716    8.2854727    9.7331659    664.90879
  317300    255.73089      0.15865   0.44978726      5.47432   -101.60685    1.8180697    8.2478462     9.733586    661.91783
  317400    281.69475       0.1587  -0.27729505    4.5396065   -101.52532    2.0026547    8.2100086     9.734006    658.90967
  317500    324.47675      0.15875  -0.15072752    5.8308299    -101.6931    2.3068051    8.2271401    9.7344261    660.31309
  317600    267.35121       0.1588   0.92169419    4.8607512   -101.65379    1.9006821     8.158388    9.7348461    654.82327
  317700    306.17705      0.15885   -1.8200717    5.8962111   -102.26893     2.176707    8.2653051    9.7352662    663.43348
  317800    251.84623       0.1589    1.9892033    7.1574235   -102.07967    1.7904524    8.2923794    9.7356863    665.63537
  317900     263.7502      0.15895   -1.4883758    7.0326063   -101.91599    1.8750814    8.1842791    9.7361063    656.98643
  318000    331.21653        0.159   0.39401498    5.3474259   -101.82669    2.3547203    8.3326112    9.7365264    668.92253
  318100    276.61998      0.15905   0.32732931    5.1377397    -101.3944    1.9665766    8.2541147    9.7369464     662.6496
  318200    301.36496       0.1591  -0.15637258    5.4317951   -101.61546    2.1424963    8.2426655    9.7373665    661.75899
  318300     293.9535      0.15915   0.15671189    5.5302626   -101.84351    2.0898059    8.2104192    9.7377865    659.19855
  318400    248.54781       0.1592   -0.2000747    5.1505337    -102.1518     1.767003    8.2520403    9.7382066    662.56881
  318500    294.28199      0.15925   0.35757613    6.6352275   -102.33067    2.0921413    8.2073764    9.7386267     659.0111
  318600    294.12965       0.1593  -0.24633297    6.3762083   -101.99569    2.0910582    8.1841898    9.7390467    657.17767
  318700    327.05701      0.15935  -0.42254195    4.7448525   -101.97316     2.325149    8.2283149    9.7394668    660.74935
  318800    292.06548       0.1594   0.29655884    6.7888792   -101.56522    2.0763834    8.3014103    9.7398868     666.6478
  318900    349.38747      0.15945   0.20819704    6.7401131    -101.7242    2.4839031    8.2882327    9.7403069    665.61827
  319000    363.98969       0.1595 -0.065228351    4.6473123   -101.34728    2.5877148    8.2627095    9.7407269    663.59716
  319100    363.09413      0.15955   0.25687946    5.1840687   -101.36607     2.581348    8.1880603     9.741147    657.63026
  319200    372.31297       0.1596  -0.79301244    5.5524985    -102.1228    2.6468876    8.2261602    9.7415671    660.71878
  319300    291.30211      0.15965   0.61540086    5.3810078   -101.93763    2.0709564    8.3272693    9.7419871    668.86862
  319400    278.29717       0.1597   0.75873079    5.5948637   -101.89932    1.9785003    8.1468037    9.7424072    654.40135
  319500    335.06299      0.15975   -1.9220927    5.7204405   -102.00572     2.382066    8.1557658    9.7428272    655.14949
  319600    305.09201       0.1598    1.0664504    4.5104401   -101.31699    2.1689931    8.3135548    9.7432473    667.85341
  319700    330.68749      0.15985    0.7437722    3.8430371   -101.34952    2.3509592     8.162442    9.7436674    655.74232
  319800    346.30849       0.1599   -1.2970781    4.4376103   -101.77191    2.4620137    8.2032846    9.7440874    659.05189
  319900    283.81537      0.15995   0.41506639    4.3421274   -102.07908    2.0177309    8.2913275    9.7445075    666.15397
  320000     294.3222         0.16   0.84629345    6.0184926   -102.12221    2.0924272    8.2050465    9.7449275    659.25027
  320100    294.77965      0.16005   -1.3239678    6.5375328    -101.8868    2.0956793    8.1805389    9.7453476     657.3095
  320200    327.35956       0.1601   0.58039002    5.3334298    -101.7636    2.3272999    8.2468142    9.7457676    662.66331
  320300    350.02854      0.16015  0.045998632     4.386728   -101.77113    2.4884607    8.2177709    9.7461877    660.35803
  320400    276.66469       0.1602   0.24162168    5.2429474   -101.40427    1.9668945    8.1830172    9.7466078    657.59365
  320500    263.89648      0.16025  -0.51759572    5.1328165   -101.86767    1.8761214    8.2242892    9.7470278    660.93879
  320600    282.62762       0.1603   0.45524252     5.052529   -102.08594    2.0092868     8.221966    9.7474479    660.78056
  320700    349.55765      0.16035  -0.41760686    7.0315605    -102.2399     2.485113    8.2429392    9.7478679    662.49468
  320800    326.00777       0.1604 -0.0075897732    6.9258523   -101.83477    2.3176896    8.3474748     9.748288    670.92524
  320900    269.02035      0.16045   0.98302954    6.0535088   -101.27487    1.9125485    8.2440118    9.7487081    662.63798
  321000    336.53432       0.1605   -1.1691522      5.50849   -101.13568    2.3925262    8.2151553    9.7491281    660.34701
  321100    325.79757      0.16055   0.71598664    4.6527037   -101.36024    2.3161953    8.2849311    9.7495482    665.98439
  321200    327.47136       0.1606   0.10423184    4.7433906    -101.7751    2.3280948    8.1323731    9.7499682    653.74918
  321300    331.61714      0.16065  -0.67635249    4.2813739   -101.95948    2.3575684    8.1623822    9.7503883    656.18983
  321400    289.32858       0.1607    0.1117997    6.2765937   -101.86745     2.056926     8.248235    9.7508083    663.12028
  321500    329.52723      0.16075   0.32692967    6.3984266   -102.05978    2.3427106    8.2230042    9.7512284    661.12031
  321600    331.48058       0.1608  -0.14286867    5.3420556   -101.34866    2.3565975    8.2798792    9.7516485    665.72168
  321700    287.42281      0.16085  -0.27816799    5.3704652   -100.90824    2.0433772    8.2535711    9.7520685    663.63503
  321800     337.6915       0.1609   0.79657526    5.5035698   -101.62684    2.4007529    8.2428769    9.7524886     662.8037
  321900    323.17595      0.16095  -0.56457375    6.0053656   -102.01464    2.2975574    8.2185016    9.7529086    660.87216
  322000    304.97855        0.161   0.29255779    5.8114172   -101.98698    2.1681864    8.2009742    9.7533287    659.49114
  322100    335.68401      0.16105   -0.3586288    5.0821251   -101.93336     2.386481    8.2052898    9.7537487     659.8666
  322200    339.69511       0.1611  -0.12283344    5.5370969   -101.69335    2.4149971     8.264932    9.7541688    664.69164
  322300    305.51369      0.16115   0.57037507    5.7175221   -101.76238    2.1719909    8.2763372    9.7545889    665.63754
  322400    269.58542       0.1612 -0.051483115    5.9787821   -101.99382    1.9165658    8.2167611    9.7550089    660.87449
  322500    303.35179      0.16125  -0.53655126    6.7117157   -102.21685    2.1566213    8.2279207     9.755429    661.80055
  322600    283.87655       0.1613   0.76514967    6.3105615   -101.97235    2.0181658    8.2527572     9.755849    663.82683
  322700    284.72555      0.16135  -0.13466327     5.018963   -101.60866    2.0242017    8.1504816    9.7562691    655.62832
  322800    363.30665       0.1614   -1.0933896    4.5100662   -101.95527    2.5828589     8.202661    9.7566892    659.85406
  322900    317.23976      0.16145   0.98563553    5.7106585   -101.74622    2.2553552    8.3045174    9.7571092    668.07655
  323000    312.51949       0.1615  0.078382724    6.0829343   -101.85489    2.2217973    8.1864298    9.7575293    658.60506
  323100    305.30582      0.16155  -0.41424394    5.7774917   -101.72832    2.1705131    8.1912871    9.7579493    659.02421
  323200    351.92265       0.1616 -0.013062599    4.9462504   -101.79467    2.5019265    8.2681878    9.7583694    665.23983
  323300    304.23293      0.16165   0.53454142    5.0847171   -101.23419    2.1628856    8.2096368    9.7587894    660.55739
  323400     273.8797       0.1617  -0.69682392    5.8419204   -101.48858    1.9470952    8.2278217    9.7592095    662.04906
  323500    295.96778      0.16175   0.92906163    5.5700775   -101.88758    2.1041261    8.2434436    9.7596296    663.33462
  323600    279.40387       0.1618   -1.0640224    5.4972932    -101.8083    1.9863681    8.1618229    9.7600496    656.79502
  323700    321.26591      0.16185   0.88019949    5.6584906   -101.81824    2.2839783    8.2493308    9.7604697     663.8655
  323800    334.51244       0.1619   -0.5791328    5.0941897   -101.26051     2.378152    8.1745912    9.7608897    657.87913
  323900    362.64558      0.16195 -0.045920505    4.5116028   -101.49177    2.5781591    8.3450408    9.7613098    671.62557
  324000    326.64389        0.162   0.98891519    5.4445325   -101.62857     2.322212     8.242432    9.7617299    663.39595
  324100     320.2083      0.16205   -1.2504904    7.1553819   -101.83483    2.2764594     8.180256    9.7621499    658.42002
  324200    303.61416       0.1621   0.83078645    6.0092411   -101.84324    2.1584866    8.3146499      9.76257    669.26604
  324300     307.1456      0.16215   0.16122928    6.2117665   -101.88927    2.1835927    8.1895298      9.76299    659.22318
  324400    276.13355       0.1622    -1.375191    6.4350216     -101.758    1.9631185    8.2016208    9.7634101    660.22487
  324500    267.83366      0.16225    1.4732595    5.6095239   -101.91746     1.904112    8.3016671    9.7638301    668.30728
  324600    256.49813       0.1623  -0.39646327    6.1415895   -101.97032    1.8235242    8.1903351    9.7642502    659.37311
  324700    295.94678      0.16235  -0.21591872    5.7649384   -101.86457    2.1039768    8.1545561    9.7646703    656.52091
  324800     314.0753       0.1624 -0.013225784    5.7803925   -101.59245     2.232858    8.2528522    9.7650903    664.46329
  324900    338.20138      0.16245   0.22816349    4.7803229    -101.7108    2.4043778    8.1789592    9.7655104    658.54226
  325000    328.54676       0.1625  -0.24213255    5.0918358   -101.84196    2.3357401    8.2193345    9.7659304    661.82161
  325100     253.2012      0.16255    0.2704785     5.566264   -101.87546    1.8000853    8.1775742    9.7663505    658.48739
  325200    252.77807       0.1626  -0.48104278    5.4434707   -101.97013    1.7970772     8.176166    9.7667705    658.40231
  325300     271.4313      0.16265  0.058529971    5.9563663   -101.86027    1.9296887     8.260785    9.7671906    665.24503
  325400    332.26121       0.1627   0.59892947    5.0576586   -101.99663    2.3621473    8.2382844    9.7676107    663.46158
  325500    314.01108      0.16275  -0.64079087     6.359032   -101.77732    2.2324015    8.2255882    9.7680307     662.4676
  325600    285.50928       0.1628   0.26561299    7.0816703   -101.85099    2.0297734    8.2999266    9.7684508    668.48336
  325700    257.42299      0.16285   0.42424549    5.5772042   -102.13193    1.8300993      8.28456    9.7688708    667.27442
  325800    290.63889       0.1629   0.22694222    6.4442865   -102.32889    2.0662414    8.1713103    9.7692909    658.18109
  325900    299.20807      0.16295   -1.5136427    6.9686894    -101.9248    2.1271623    8.2595904     9.769711    665.32047
  326000    300.25353        0.163    1.3510249    6.0929988   -101.63227    2.1345948    8.3257725     9.770131    670.68036
  326100    315.56383      0.16305   0.52385632    4.7471508   -101.69732    2.2434404    8.1092896    9.7705511    653.26972
  326200    293.14251       0.1631   -2.5919432     4.714221    -101.7109    2.0840404    8.1854142    9.7709711    659.43053
  326300    254.89354      0.16315    2.5586628    6.1730095   -101.50848    1.8121167    8.3310087    9.7713912    671.18872
  326400    309.69379       0.1632  -0.74755839    5.6397712    -101.6127    2.2017085    8.0388037    9.7718112    647.67503
  326500    298.54811      0.16325   -0.9399206    4.4203557   -101.22033    2.1224704    8.2095681    9.7722313    661.46171
  326600    333.42638       0.1633   0.91494063    3.3924136    -101.3437    2.3704308    8.1951102    9.7726514    660.32519
  326700    304.46247      0.16335  -0.72825396    4.4846381   -101.87402    2.1645174    8.2492188    9.7730714    664.71359
  326800    268.86575       0.1634   0.90871742    5.0037063   -101.84497    1.9114494    8.2769827    9.7734915    666.97944
  326900    302.18105      0.16345  -0.25721735    5.6947321   -101.86464    2.1482981    8.1697714    9.7739115    658.36839
  327000    355.35232       0.1635  -0.58117085    5.8750435   -101.86717    2.5263091    8.2020195    9.7743316    660.99553
  327100    313.34368      0.16355    0.8507898    4.6815566   -101.61713    2.2276567    8.2154387    9.7747517    662.10543
  327200    328.74199       0.1636  -0.31841382    4.8749631    -102.2404    2.3371281    8.1088552    9.7751717    653.54365
  327300    258.83581      0.16365  -0.21594589    4.0389111   -102.10444    1.8401435    8.1631361    9.7755918    657.94676
  327400    300.17236       0.1637   0.24505957    5.4606631   -102.13838    2.1340178    8.1575387    9.7760118    657.52387
  327500    300.68308      0.16375  -0.12473692    5.1380425   -101.77616    2.1376486    8.2216808    9.7764319     662.7224
  327600    303.92476       0.1638  -0.20084482    2.9342901   -101.54543    2.1606948    8.2475908    9.7768519    664.83948
  327700    340.78315      0.16385   0.39612313    4.7387038   -101.62318    2.4227324    8.2321949     9.777272    663.62693
  327800    335.09285       0.1639  -0.34217141    4.2085073   -101.80453    2.3822783    8.2556144    9.7776921    665.54345
  327900    218.96602      0.16395   0.34956855    4.6559815   -101.60822    1.5566968    8.2952226    9.7781121    668.76528
  328000    282.27237        0.164   0.52663962    6.3898662   -101.97248    2.0067612    8.1431854    9.7785322    656.53616
  328100    293.67761      0.16405   -1.3020686    6.2660502   -101.82239    2.0878446    8.2196212    9.7789522    662.72719
  328200    316.29479       0.1641   0.80032576    5.7834413   -101.64807    2.2486371    8.2729929    9.7793723    667.05907
  328300    337.84123      0.16415   0.36360041    6.8318942   -101.15636    2.4018173    8.1323727    9.7797924     655.7489
  328400      331.043       0.1642   -1.2297579    4.2363887   -101.16237    2.3534866    8.1782693    9.7802124    659.47806
  328500    310.24133      0.16425     1.508275     4.793793     -101.195    2.2056011    8.2225205    9.7806325    663.07486
  328600    288.52003       0.1643  -0.80448149    4.7961769    -101.2515    2.0511777    8.0791253    9.7810525    651.53927
  328700    280.05822      0.16435  -0.60095454    5.0860098   -101.50969    1.9910202    8.1776221    9.7814726    659.51084
  328800    309.84519       0.1644   0.50864382    4.1057367   -101.79183    2.2027849    8.3200737    9.7818926    671.02813
  328900    303.63594      0.16445   0.23693704    5.1893637   -101.69279    2.1586414    8.2194054    9.7823127    662.93752
  329000    320.72688       0.1645  -0.53601722    6.3370987   -101.74731    2.2801462    8.2548194    9.7827328    665.82244
  329100    315.59794      0.16455   0.47490063    6.2426255   -101.64059    2.2436829    8.3585628    9.7831528    674.21919
  329200    319.11407       0.1646    1.0154812    4.6769724   -101.78269    2.2686802    8.1740549    9.7835729    659.36471
  329300    275.15511      0.16465   -1.8159657     5.204031   -101.44505    1.9561624    8.1645138    9.7839929    658.62334
  329400    327.48985       0.1647   0.31152152    5.6805371   -101.39862    2.3282262    8.3522954     9.784413    673.80043
  329500    348.75023      0.16475    1.1378371     5.358454   -101.48903    2.4793728     8.218525     9.784833     663.0373
  329600     238.3273       0.1648  -0.65383274    5.9732508   -101.19409    1.6943422    8.1881591    9.7852531    660.61586
  329700    271.39434      0.16485 -0.043691164    5.6696542   -101.55745     1.929426    8.1711595    9.7856732    659.27264
  329800    280.35251       0.1649   0.39288287     4.574767   -101.54075    1.9931123    8.1589858    9.7860932    658.31869
  329900    314.60715      0.16495  -0.95573227    4.3646094   -101.70595    2.2366392    8.2039082    9.7865133    661.97173
  330000    296.57459        0.165    1.0730343    4.9579988   -101.46508    2.1084401    8.2104521    9.7869333    662.52819
  330100    352.36369      0.16505   -1.0698517    4.8512052   -101.87711     2.505062    8.1883454    9.7873534    660.77269
  330200    301.56408       0.1651   0.76217431    4.3934042   -101.70218    2.1439119    8.2500162    9.7877735    665.77789
  330300    289.36938      0.16515   0.51569653    5.2116993    -101.6305     2.057216    8.1474192    9.7881935    657.52651
  330400    288.68385       0.1652   -1.3699306    5.1731162   -101.53597    2.0523424     8.139409    9.7886136    656.90825
  330500     336.3944      0.16525    1.0931732    4.6920481   -101.69052    2.3915314    8.2062613    9.7890336    662.33213
  330600    291.15355       0.1653  -0.46484373      4.25209   -101.40588    2.0699002    8.0882737    9.7894537    652.83729
  330700    295.94043      0.16535  -0.11165178    4.4126074   -101.55357    2.1039317    8.1762535    9.7898737    659.96681
  330800    275.24674       0.1654  -0.15859929    4.5529758   -101.76234    1.9568139    8.2233905    9.7902938    663.80008
  330900    270.78704      0.16545   0.63987945    5.0219097   -102.04556    1.9251085    8.2010611    9.7907139    662.02603
  331000    274.34962       0.1655  -0.69366329    6.9627015   -101.88751     1.950436    8.3054388    9.7911339    670.48062
  331100    307.41001      0.16555   0.55148527    6.8177944   -101.63143    2.1854725    8.2176301     9.791554    663.42047
  331200    282.04209       0.1656   0.18339909    5.0359313   -101.38872    2.0051241    8.2109887     9.791974    662.91274
  331300    282.43788      0.16565  -0.43673698    4.8310967   -101.34097    2.0079379    8.1971629    9.7923941    661.82491
  331400    306.81405       0.1657   0.17605204    5.4098108   -101.46192    2.1812356    8.1882416    9.7928142    661.13298
  331500    268.54514      0.16575 -0.094777075    5.5367259   -101.78737    1.9091701     8.182244    9.7932342    660.67706
  331600    280.47781       0.1658   0.62733314    5.7417832   -101.92614    1.9940032    8.1800923    9.7936543    660.53165
  331700    273.60689      0.16585  -0.74492654    5.7993449   -101.57656    1.9451557    8.1213927    9.7940743    655.81986
  331800    326.18161       0.1659  -0.76928471    5.0982729   -101.78246    2.3189255    8.2693566    9.7944944    667.79691
  331900    331.25375      0.16595    1.4056407     6.069034   -101.79205    2.3549849    8.3282986    9.7949144    672.58565
  332000    297.39645        0.166 -0.071330813    6.0236302   -101.58091    2.1142829    8.2077571    9.7953345    662.87926
  332100    342.02285      0.16605    -1.208327    5.1141948   -101.65571    2.4315458    8.2425936    9.7957546    665.72129
  332200    235.52428       0.1661    1.4732659    4.6042155   -100.95299    1.6744146    8.2999896    9.7961746    670.38568
  332300    362.25113      0.16615  -0.31782733    4.9175471    -101.5975    2.5753548    8.2032869    9.7965947    662.60346
  332400    335.44339       0.1662  -0.82993984    5.0128099   -101.76632    2.3847704    8.1848026    9.7970147    661.13878
  332500    280.60956      0.16625    1.0567966    4.6739241   -101.73359    1.9949398    8.2306736    9.7974348    664.87258
  332600    303.62794       0.1663  -0.23247016    4.8870139   -101.92167    2.1585845    8.0796959    9.7978548    652.70461
  332700    315.47668      0.16635     -1.32852    5.2683043   -101.94271    2.2428209    8.1207121    9.7982749    656.04615
  332800    328.68276       0.1664   0.71728807    5.1982367     -101.363     2.336707     8.354791     9.798695    674.98557
  332900    317.37327      0.16645   0.36116995    6.7196949   -100.86088    2.2563043    8.2833544     9.799115    669.24288
  333000     346.9696       0.1665   0.19452319    5.4848185    -101.5095    2.4667137    8.2891708    9.7995351    669.74152
  333100    305.75932      0.16655 -0.048222074    4.2982285   -101.68247    2.1737372    8.1677449    9.7999551    659.95893
  333200    279.12063       0.1666   -0.4244814    5.1777797   -101.65846    1.9843545    8.2295283    9.8003752    664.97958
  333300    275.89868      0.16665   0.74165258    5.1469819   -101.49549    1.9614487    8.1746821    9.8007953    660.57609
  333400    332.07073       0.1667   -1.1192934    5.8744937   -101.43676    2.3607931    8.1741726    9.8012153    660.56323
  333500    358.77574      0.16675   0.57333633    6.0946835   -101.17971    2.5506472    8.2209504    9.8016354    664.37186
  333600    286.57858       0.1668 -0.032236057    5.1760918   -101.00556    2.0373754    8.2806304    9.8020554    669.22355
  333700    265.39966      0.16685   0.50411945    5.0310844   -101.37214    1.8868079    8.1735548    9.8024755    660.59822
  333800    288.36238       0.1669  -0.75195362    4.0220235   -101.60406     2.050057    8.1748574    9.8028955    660.73182
  333900     306.6597      0.16695   0.44212968    4.4766248   -101.85567    2.1801382     8.244584    9.8033156    666.39601
  334000    302.98562        0.167   0.04354023    4.8880577    -102.0487    2.1540181    8.1573672    9.8037357    659.37468
  334100    254.49686      0.16705  -0.35170962    6.1008444   -101.95515    1.8092965    8.1948418    9.8041557     662.4322
  334200     267.1741       0.1671  0.088982412    6.5022604    -101.8231     1.899423    8.2549401    9.8045758    667.31885
  334300    295.00671      0.16715   0.57730035    6.4133521   -101.48151    2.0972935    8.1714921    9.8049958    660.60132
  334400    316.63953       0.1672   -1.3476592    5.8945607   -101.48764    2.2510879    8.2515824    9.8054159    667.10458
  334500    305.97586      0.16725    1.0563127    4.7114381   -101.45451    2.1752766    8.3558653     9.805836    675.56434
  334600    303.10504       0.1673   0.29727188    5.4579976   -101.78391    2.1548671    8.2389209     9.806256    666.13802
  334700    293.54011      0.16735   -0.4031363    6.5091922   -102.22209    2.0868671    8.2662876    9.8066761    668.37932
  334800    266.52501       0.1674  0.064405428    5.7084627   -102.07018    1.8948084     8.271418    9.8070961    668.82278
  334900    238.04816      0.16745    0.3231944    6.6852098    -101.6242    1.6923577    8.1693126    9.8075162    660.59489
  335000    305.12269       0.1675  -0.93787007    6.6076028   -101.78745    2.1692112    8.2201043    9.8079362    664.73053
  335100    286.34078      0.16755    1.0172711    6.0803468   -101.40271    2.0356848     8.287655    9.8083563    670.22181
  335200    357.75202       0.1676  -0.43913579    5.4822423   -101.75158    2.5433693     8.155706    9.8087764    659.57936
  335300    310.61691      0.16765  -0.70864324    5.9702769   -101.69988    2.2082713    8.1881231    9.8091964     662.2294
  335400    248.33824       0.1677    1.3579437    5.7457594   -101.85485     1.765513    8.2555937    9.8096165     667.7148
  335500    258.80599      0.16775   -1.0654131    5.2401227    -101.8601    1.8399315     8.116274    9.8100365    656.47469
  335600     253.2964       0.1678  -0.87574101    6.6079232   -101.50219    1.8007621     8.338396    9.8104566    674.46963
  335700    259.69454      0.16785    2.4443859    7.0283816   -101.32053    1.8462485    8.2878068    9.8108766    670.40631
  335800    294.94404       0.1679   -1.3225956    6.2077769   -101.33428     2.096848    8.1183076    9.8112967    656.72352
  335900    337.35794      0.16795  -0.12356788    4.6387721   -101.47629    2.3983815    8.2859457    9.8117168    670.31316
  336000    334.50013        0.168   0.54438318    5.5658378   -101.58554    2.3780645     8.275183    9.8121368    669.47114
  336100    305.09426      0.16805  -0.40913353    5.5671223   -101.99441    2.1690091    8.2268692    9.8125569      665.591
  336200    239.54648       0.1681   0.52580199    5.9636796   -101.65593    1.7030097    8.2475908    9.8129769    667.29603
  336300    299.61126      0.16815  -0.92434657    6.9224145   -101.70369    2.1300287     8.175104     9.813397    661.45958
  336400    310.51226       0.1682   0.71013208    6.4520333   -101.45609    2.2075273    8.2592495    9.8138171    668.29652
  336500    284.46946      0.16825 -0.045052859    6.4741889   -101.24002     2.022381     8.214912    9.8142371    664.73741
  336600    322.18899       0.1683 -0.093885106    6.3854292   -101.63195    2.2905408    8.2106953    9.8146572    664.42464
  336700     305.9473      0.16835  -0.36585625    5.6567226   -101.66513    2.1750736    8.2109068    9.8150772     664.4702
  336800    319.77066       0.1684   0.36543428    6.3324389   -101.85429    2.2733481    8.3103589    9.8154973    672.54717
  336900    303.89777      0.16845   0.32628382    6.1514787    -101.7798    2.1605029    8.2895762    9.8159173    670.89396
  337000    329.18168       0.1685  -0.47947729    5.8857275   -101.59119     2.340254    8.1661732    9.8163374    660.93496
  337100    318.04316      0.16855   0.11648357    5.2923772   -101.01989    2.2610668      8.29593    9.8167575    671.46565
  337200    280.40381       0.1686   0.61687605     5.145223   -100.96277    1.9934771    8.1746373    9.8171775    661.67663
  337300    274.53549      0.16865   -1.0365563    7.0800136   -101.22895    1.9517574    8.1547373    9.8175976    660.09412
  337400    324.63569       0.1687   0.43779564    6.4868108    -101.7259    2.3079351    8.2163325    9.8180176    665.10846
  337500     261.9408      0.16875  -0.01769452    5.5295348   -101.44805    1.8622179    8.2166817    9.8184377    665.16519
  337600    258.30771       0.1688   -0.4994824    6.4897048   -101.42695     1.836389    8.2295956    9.8188578    666.23911
  337700    334.00904      0.16885    0.9057544    7.1672003   -101.64887    2.3745731    8.2859154    9.8192778    670.82726
  337800    394.64943       0.1689  -0.70120626    5.3156275   -101.65816    2.8056843    8.3232402    9.8196979     673.8779
  337900    384.86332      0.16895   0.99377442    5.5026398   -101.48498    2.7361119    8.2031027    9.8201179    664.17957
  338000    302.67908        0.169    -1.325653    4.9247781   -101.36458    2.1518388    8.1911412     9.820538    663.23945
  338100    297.57098      0.16905    1.0820021    5.2652232   -101.74263    2.1155238     8.294529     9.820958    671.63952
  338200    309.27615       0.1691  -0.24999304    6.7049574   -101.90635    2.1987394    8.1278807    9.8213781    658.17353
  338300    229.74647      0.16915   -1.1160607    7.1309467   -101.48324    1.6333384    8.2701654    9.8217982      669.724
  338400    248.44193       0.1692    2.1859891      5.81874   -101.15349    1.7662502    8.1757429    9.8222182    662.10591
  338500    349.22499      0.16925   -2.7030413    4.7501647   -101.53041     2.482748    8.1867834    9.8226383    663.02837
  338600    316.95796       0.1693    2.1301057    4.6656051   -101.25625    2.2533518    8.3393195    9.8230583     675.4108
  338700    315.43927      0.16935  -0.37695657    5.4765105   -101.45833    2.2425549    8.0960711    9.8234784    655.73787
  338800    275.70525       0.1694   -1.1253403    5.6975906   -101.80587    1.9600735    8.2017957    9.8238984     664.3294
  338900    263.70478      0.16945    1.6148386    5.3345471   -101.80483    1.8747585    8.1931008    9.8243185     663.6535
  339000    265.00194       0.1695   -1.6958957    5.5147349   -101.58209    1.8839804    8.0785704    9.8247386    654.40435
  339100    325.10249      0.16955   0.45307462     5.875682   -101.57639    2.3112537    8.3408299    9.8251586    675.67756
  339200    304.04996       0.1696   0.74481723    4.9115015   -101.24295    2.1615848    8.1973686    9.8255787    664.08437
  339300    272.11912      0.16965  -0.57188593    4.5833804   -101.19251    1.9345786    8.2739986    9.8259987    670.32097
  339400    277.65903       0.1697    0.1752788    5.9469169   -101.45563    1.9739635    8.2459945    9.8264188    668.08077
  339500     240.0553      0.16975   0.79505745    6.8100693   -101.81403     1.706627    8.2289017    9.8268389    666.72443
  339600    285.69539       0.1698   -1.0168479    6.7659513   -102.19009    2.0310965    8.1749488    9.8272589    662.38136
  339700    248.58435      0.16985   0.36230717    6.7893931   -101.60628    1.7672627    8.1733003     9.827679    662.27609
  339800    265.32891       0.1699  0.052149961    5.4943496   -101.37988     1.886305    8.1913763     9.828099    663.76915
  339900     336.5948      0.16995  -0.82861235     4.848051   -101.71658    2.3929561    8.2189752    9.8285191    666.03402
  340000    299.87025         0.17    1.0695936    6.2299577   -101.54052    2.1318699     8.299405    9.8289391    672.58049
  340100    284.39566      0.17005   -0.6013015    5.8303298   -101.72887    2.0218563    8.2027091    9.8293592     664.7727
  340200    262.08773       0.1701   0.83727655    5.3332646   -101.84221    1.8632624    8.2579264    9.8297793    669.27628
  340300    318.11517      0.17015   -1.0382517    5.9431242   -101.71643    2.2615787    8.2241977    9.8301993    666.57117
  340400    314.96577       0.1702   0.78915741    4.9797937    -101.2404    2.2391887    8.2388052    9.8306194    667.78364
  340500    309.53531      0.17025   -0.3899345    4.4542072   -101.17033    2.2005818    8.1742204    9.8310394    662.57713
  340600    330.55469       0.1703  -0.31854065    4.1293575   -101.52376    2.3500151    8.1659056    9.8314595    661.93144
  340700    281.75404      0.17035    0.7513145    4.9393225   -101.63311    2.0030763    8.2228337    9.8318796    666.57454
  340800    258.79647       0.1704  -0.25853127    4.7542197   -101.46598    1.8398638    8.0901894    9.8322996     655.8499
  340900    248.19468      0.17045  -0.62198194    4.2826008   -101.25684    1.7644924    8.1270116    9.8327197    658.86312
  341000    247.39811       0.1705   0.38482957     4.769169   -101.11751    1.7588294    8.2450622    9.8331397    668.46213
  341100    327.94998      0.17055   0.49515696    4.6866204   -101.42118    2.3314974    8.1690982    9.8335598     662.3317
  341200    323.06732       0.1706  -0.82176032    5.5656781   -101.44205    2.2967851     8.261206    9.8339798     669.8282
  341300     310.8103      0.17065   0.91115928    4.8103536   -101.64959    2.2096462    8.2233341    9.8343999    666.78598
  341400    284.70975       0.1707  -0.86427609    5.1425253   -101.69284    2.0240893    8.2416868      9.83482    668.30265
  341500     293.5842      0.17075   0.96407361    6.0724176    -101.6994    2.0871805    8.2077162      9.83524    665.57646
  341600    313.99948       0.1708  -0.68238297     4.692116   -101.49911     2.232319    8.1942552    9.8356601    664.51327
  341700    333.53709      0.17085   0.40396223     4.635077   -101.33483    2.3712179    8.2293439    9.8360801    667.38729
  341800    351.93887       0.1709  -0.65165767     4.602443   -101.39171    2.5020418    8.2051721    9.8365002    665.45541
  341900    260.20893      0.17095   0.81073942    4.8290277   -101.03737    1.8499054    8.2293891    9.8369202    667.44796
  342000    288.71888        0.171  -0.70956532    5.8095408   -101.51462    2.0525914    8.1279212    9.8373403    659.24651
  342100    274.11662      0.17105   0.40563725    6.5895801   -101.86035    1.9487794    8.2915416    9.8377604    672.54629
  342200    247.73175       0.1711   0.27894619    5.6581754   -101.58128    1.7612013    8.1442905    9.8381804    660.63062
  342300    322.30118      0.17115   -0.8189231    5.7619556   -101.80415    2.2913383    8.2084703    9.8386005    665.86504
  342400    265.19529       0.1712    0.2679954    5.8695336   -101.34661     1.885355    8.2996521    9.8390205    673.29039
  342500    284.40976      0.17125   0.78274734    5.6370981   -101.21401    2.0219566    8.2049351    9.8394406     665.6351
  342600    332.95219       0.1713   -1.1019969    5.1030529   -101.36375    2.3670597    8.1866239    9.8398607    664.17794
  342700    249.43351      0.17135   0.69931853    4.7233353   -100.99791    1.7732997    8.2812236    9.8402807    671.88146
  342800    235.90122       0.1714   0.52072267    5.1664618   -101.13946    1.6770944    8.0467331    9.8407008    652.88438
  342900    308.20446      0.17145   -2.5371198    5.5448013   -101.52191    2.1911204    8.2012183    9.8411208    665.44719
  343000    308.61353       0.1715    3.0213679    5.4410091   -101.03572    2.1940286    8.3270888    9.8415409    675.68917
  343100    393.88957      0.17155   -1.2552779    5.2999565   -101.37391    2.8002823    8.1147474    9.8419609    658.48715
  343200    270.75777       0.1716  -0.67625275    4.1665594   -101.15105    1.9249004    8.2407909     9.842381    668.74374
  343300    286.92784      0.17165    1.1047031    4.8304687   -101.23712    2.0398584    8.2388318    9.8428011    668.61329
  343400    336.84374       0.1717  -0.43164528    4.6247932   -101.49194    2.3947259    8.1660378    9.8432211    662.73405
  343500    309.59799      0.17175  -0.25131625    5.3976727   -101.67225    2.2010274    8.2557341    9.8436412    670.04216
  343600    275.73093       0.1718   0.22511032    5.7682623   -101.60425    1.9602561    8.2187738    9.8440612     667.0709
  343700    317.11562      0.17185   0.40723864    6.0793462   -101.31536    2.2544726    8.2121323    9.8444813    666.56028
  343800    331.70197       0.1719  -0.42519116    5.5108824   -101.05535    2.3581715    8.1475959    9.8449014    661.35023
  343900    296.08589      0.17195  0.050164887     4.253278   -101.18408    2.1049658    8.2552302    9.8453214    670.11563
  344000    297.16763        0.172   0.13224308    4.6079338   -101.41485    2.1126562     8.109222    9.8457415    658.29155
  344100    278.53752      0.17205  -0.70988616    4.9322866   -101.34186     1.980209     8.232941    9.8461615    668.36333
  344200    263.00332       0.1721   0.95767031    5.1669106   -101.25605    1.8697716    8.2582155    9.8465816    670.44376
  344300    320.97232      0.17215  -0.48868224    6.5531411   -101.46224    2.2818911    8.1916288    9.8470016    665.06629
  344400    337.11654       0.1722   0.10353049    7.2870353   -101.24874    2.3966653    8.3003696    9.8474217    673.92354
  344500    331.91693      0.17225   0.17378133    5.8016426    -101.2001    2.3596996    8.2493345    9.8478418    669.80847
  344600    273.49773       0.1723   -0.3867679    5.1173954   -101.30485    1.9443796    8.2167136    9.8482618    667.18826
  344700     304.5339      0.17235   0.27159266    5.3093084   -101.69412    2.1650253     8.224256    9.8486819    667.82918
  344800    243.64075       0.1724   0.39605431    4.6179881   -101.18833    1.7321171    8.1995323    9.8491019    665.84996
  344900    296.08081      0.17245    -1.157922     5.350433   -101.26523    2.1049297     8.194829     9.849522     665.4964
  345000    296.70822       0.1725    1.2297445    6.2635151   -101.13768    2.1093901      8.25452    9.8499421    670.37245
  345100    354.23768      0.17255  -0.45566431     6.136931   -101.56039    2.5183848    8.1937527    9.8503621    665.46575
  345200    292.03094       0.1726   0.16322141    5.3649116   -101.39793    2.0761379    8.1551304    9.8507822    662.35724
  345300    316.60045      0.17265  -0.61438858    4.9117295   -101.54238    2.2508101    8.2431327    9.8512022    669.53331
  345400    363.01399       0.1727   0.79985139     5.807559   -101.67268    2.5807782    8.1971918    9.8516223    665.83023
  345500     275.3794      0.17275  -0.47485553    5.9636229   -101.17378    1.9577569    8.2286735    9.8520423    668.41588
  345600    270.60861       0.1728   0.36380781     5.919823   -101.25043    1.9238399    8.2055333    9.8524624    666.56462
  345700    324.95563      0.17285  -0.39246795     5.401753   -101.36535    2.3102096    8.1699233    9.8528825    663.70019
  345800    293.36537       0.1729 -0.061423703    5.5553903   -101.05135    2.0856248    8.1874192    9.8533025    665.14986
  345900    391.17292      0.17295   0.11010828    5.0572052   -101.52162    2.7809688     8.339276    9.8537226    677.51566
  346000    309.06843        0.173   0.89899108    5.7141381   -101.29037    2.1972627    8.2106065    9.8541426    667.09048
  346100    293.94144      0.17305   -1.2275344     5.972659   -101.55382    2.0897202    8.1736174    9.8545627    664.11352
  346200    289.24347       0.1731    0.3700201    6.5672086   -101.71417    2.0563209    8.2150069    9.8549827     667.5049
  346300    230.12544      0.17315   0.23891749    6.6521666   -101.39733    1.6360326    8.2540247    9.8554028    670.70386
  346400    303.91294       0.1732  -0.34556305    6.3845619   -101.27714    2.1606107     8.215706    9.8558229    667.61862
  346500    333.26672      0.17325   0.42027238    5.4778149   -101.17004    2.3692957    8.2135304    9.8562429    667.47027
  346600    288.84029       0.1733  0.081935711    5.9381841   -101.03928    2.0534545    8.1333119     9.856663    660.97951
  346700    298.51981      0.17335   -1.0937219     4.628756   -101.41203    2.1222693    8.2073949     9.857083    667.02852
  346800    276.64878       0.1734    1.1169424    5.4821321   -101.62641    1.9667814    8.2399963    9.8575031    669.70663
  346900    256.39083      0.17345  0.017293416    4.8913197   -101.85013    1.8227613    8.1768139    9.8579232    664.59979
  347000    233.16214       0.1735  -0.69727623    5.3061052   -101.91741    1.6576215    8.2170015    9.8583432    667.89464
  347100    288.86582      0.17355   0.69809349    4.7105185   -101.82433    2.0536361    8.2227595    9.8587633    668.39114
  347200    306.02297       0.1736  -0.29590878    5.2128256   -101.50235    2.1756115    8.1422604    9.8591833    661.87593
  347300    273.76339      0.17365  -0.27576929    6.6854832   -101.09898    1.9462683    8.2344922    9.8596034    669.40188
  347400    318.74695       0.1737   0.60866158    5.3601531   -101.21616    2.2660702    8.1779821    9.8600234    664.83636
  347500     275.0652      0.17375  -0.21843076    4.0429573   -101.12575    1.9555232    8.1581549    9.8604435    663.25275
  347600    291.07829       0.1738   -0.6335768    3.9365553   -101.75485    2.0693652    8.2111402    9.8608636    667.58886
  347700    266.00837      0.17385   0.73641899    6.2909629   -101.70095    1.8911354    8.2552083    9.8612836    671.20031
  347800    297.86125       0.1739  -0.19461141    5.8078923   -101.64655    2.1175874    8.2107903    9.8617037    667.61728
  347900    251.59378      0.17395   0.71403762    3.7829369   -101.16385    1.7886577    8.1312449    9.8621237    661.17762
  348000    260.41555        0.174   -1.0624932    4.5735164    -101.0901    1.8513743    8.0556792    9.8625438    655.06103
  348100    307.75176      0.17405   0.28003378    4.8710855   -101.26304     2.187902    8.1584974    9.8629639    663.45012
  348200    302.49171       0.1741  -0.38602606    3.5130009   -101.20702    2.1505067    8.2092526    9.8633839    667.60598
  348300    289.49274      0.17415    1.0610983    5.9802052   -101.29097    2.0580931    8.2022291     9.863804    667.06321
  348400    243.58837       0.1742  -0.91786315    5.2438118   -101.26617    1.7317447    8.1645624     9.864224    664.02817
  348500    267.31922      0.17425   0.75502761     5.126491   -101.49916    1.9004547    8.1905369    9.8646441    666.16905
  348600    331.27177       0.1743  -0.35940368    5.1720406   -101.53264    2.3551131    8.1154275    9.8650641    660.08821
  348700    314.89766      0.17435  -0.42577239    3.6380979   -100.96497    2.2387044    8.1311266    9.8654842     661.3933
  348800    324.19106       0.1744   0.22923112    4.3378691    -101.0541    2.3047741    8.2326245    9.8659043    669.67774
  348900    303.44947      0.17445   0.70223432    4.5400998   -101.16119    2.1573158    8.1571421    9.8663243    663.56592
  349000    353.61978       0.1745  -0.46484147    4.6808367   -101.57511    2.5139919    8.1145721    9.8667444    660.13105
  349100    287.05174      0.17455  -0.07004247    4.0367557   -101.27122    2.0407392    8.1245162    9.8671644    660.96815
  349200    254.86895       0.1746  -0.82512883    4.7821701    -101.3023    1.8119419    8.2398281    9.8675845    670.37786
  349300    275.63917      0.17465    2.0564658    4.7942537   -101.45163    1.9596038    8.1819202    9.8680045    665.69491
  349400    302.91104       0.1747   -1.6233063    4.1897764   -101.17835    2.1534879    8.0131876    9.8684246     651.9943
  349500    397.86124      0.17475  -0.17166185    3.7508909   -101.49524    2.8285181    8.2298367    9.8688447    669.65049
  349600    341.39812       0.1748   0.94173841    4.5668884   -101.39302    2.4271044    8.2144416    9.8692647    668.42626
  349700    297.96807      0.17485   -0.6694472    4.4695158   -101.59537    2.1183468    8.1359645    9.8696848     662.0686
  349800    277.91698       0.1749   0.35581896    4.0902227   -101.55474    1.9757974    8.2058024    9.8701048    667.78011
  349900    277.68605      0.17495  -0.19874301    5.1219092   -101.21853    1.9741557    8.1498632    9.8705249    663.25606
  350000       302.78        0.175    0.3153732     4.451457   -101.15318    2.1525563    8.2009874     9.870945    667.44508
  350100    294.48029      0.17505   0.27349838    4.6956304   -101.14271    2.0935511    8.0863831     9.871365     658.1459
  350200    344.07068       0.1751  -0.98100451    3.6135216   -101.55698    2.4461044    8.0478688    9.8717851    655.03912
  350300    283.48477      0.17515   0.36035984    3.8517061   -101.47447    2.0153806    8.1838745    9.8722051    666.13736
  350400    262.89999       0.1752   0.50542557    3.8813505   -101.76362     1.869037      8.15935    9.8726252    664.16942
  350500    219.29238      0.17525  -0.51556835    4.3431378   -101.32421    1.5590171    8.1128281    9.8730452    660.41064
  350600    310.45604       0.1753  -0.14138267    4.7619068    -101.4804    2.2071276    8.1957642    9.8734653    667.19029
  350700     305.4118      0.17535   0.79056714    4.2015128   -101.30602    2.1712665    8.2169583    9.8738854     668.9441
  350800    346.44054       0.1754  -0.42981987    4.6573778   -101.56991    2.4629525    8.1151349    9.8743054    660.68274
  350900    295.26377      0.17545   -0.2893902    4.5353254   -101.43034    2.0991211    8.0897082    9.8747255    658.64067
  351000    243.88571       0.1755   0.19276577    4.5148485   -101.53798    1.7338586    8.2177945    9.8751455    669.09755
  351100    256.25891      0.17555   0.61163713    4.2506477   -101.63586    1.8218235    8.2027738    9.8755656    667.90297
  351200    315.52796       0.1756  -0.61325314     4.747735   -101.62158    2.2431854    8.0810509    9.8759857    658.01979
  351300    337.21133      0.17565   -0.1644296    4.0590188   -101.79538    2.3973392    8.1544911    9.8764057    664.02808
  351400    270.38433       0.1757    0.4318058    4.4622947   -101.29582    1.9222455    8.2092083    9.8768258    668.51219
  351500    313.48805      0.17575   0.28802189    4.1496002   -101.19104    2.2286831    8.1067515    9.8772458    660.19675
  351600    292.33818       0.1758   -1.2507108    4.3400678   -101.03649    2.0783222    8.1830237    9.8776659    666.43654
  351700    290.67128      0.17585    1.5356501    4.3538999   -101.23932    2.0664716    8.1736895    9.8780859    665.70466
  351800    275.54443       0.1759  -0.48986908    5.1961221   -101.83393    1.9589302    8.0549335     9.878506    656.06049
  351900    258.33726      0.17595   -1.0425871    5.3053372   -101.86204    1.8365991    8.1947739    9.8789261    667.47864
  352000    292.72187        0.176    1.3442823    5.2168405    -101.6809      2.08105    8.1668035    9.8793461    665.22868
  352100    325.08471      0.17605   -1.0415248    3.3978089   -101.55834    2.3111273    8.1345927    9.8797662    662.63312
  352200    342.56674       0.1761   0.66778705    3.4183742   -101.59895    2.4354125    8.1645778    9.8801862    665.10394
  352300    278.52183      0.17615  -0.51204962    3.7519886   -101.18877    1.9800974     8.194019    9.8806063    667.53066
  352400    310.57199       0.1762   0.78848967    4.5760069   -101.35168     2.207952    8.1085168    9.8810263    660.59326
  352500    259.47476      0.17625 -0.082955577    5.1805826   -101.24823     1.844686    8.1146759    9.8814464    661.12314
  352600    267.37333       0.1763  -0.78220067     4.158296   -101.32434    1.9008394    8.0398885    9.8818665    655.05786
  352700    371.15568      0.17635  0.025162733    3.8026725   -101.76609    2.6386601    8.1759668    9.8822865     666.1733
  352800    291.89541       0.1764    1.4171282      3.24127   -101.42265    2.0751744    8.1204032    9.8827066    661.67413
  352900    258.55946      0.17645   -1.5354694    3.8422645   -101.27777    1.8381788     8.070312    9.8831266    657.62051
  353000    363.30548       0.1765   0.22209884    3.5039297   -101.66033    2.5828506     8.177115    9.8835467    666.35181
  353100    275.53264      0.17655   0.92578707    3.6473694   -101.03158    1.9588464    8.1506029    9.8839668    664.21958
  353200    275.89739       0.1766    -1.033142    5.2060471   -101.40751    1.9614395    8.1131777    9.8843868    661.19777
  353300    252.26646      0.17665   0.56740986     4.961639   -101.52276      1.79344    8.1980358    9.8848069    668.14182
  353400    298.19655       0.1767   0.43482514    3.4396692   -101.67779    2.1199711    8.0822894    9.8852269    658.73646
  353500    365.36417      0.17675    -1.249475    3.9758947   -101.39125    2.5974864    8.1685508     9.885647    665.79537
  353600    283.98152       0.1768   0.67576525    4.0606027   -100.74159    2.0189121    8.1829612     9.886067    666.99826
  353700     356.7888      0.17685   0.64156509    4.3584497   -101.44748    2.5365215    8.1314805    9.8864871     662.8302
  353800    248.91672       0.1769  -0.75377648    3.4945728   -101.26472    1.7696257    8.1076292    9.8869072    660.91407
  353900    304.55604      0.17695  -0.42917937    4.2698305   -101.56459    2.1651827     8.161203    9.8873272    665.30954
  354000    286.83114        0.177   0.82781316    4.8790121   -101.26327    2.0391709    8.2328789    9.8877473    671.18114
  354100    364.48748      0.17705  -0.20103007    4.2687991    -101.5057    2.5912538    8.1470454    9.8881673    664.21182
  354200     299.6134       0.1771  -0.10999032    3.5722078   -101.04062    2.1300439    8.2142634    9.8885874    669.72042
  354300    292.21738      0.17715   0.51189451    3.4996528   -101.29503    2.0774633    8.1154431    9.8890075    661.69157
  354400    260.93811       0.1772   -1.4051678    3.4071745   -101.42102    1.8550894    8.1113249    9.8894275    661.38389
  354500    220.23417      0.17725    1.1778625     3.806744   -101.31093    1.5657125    8.2747057    9.8898476    674.73434
  354600    315.13873       0.1773   0.75824055    3.7954611   -101.64935    2.2404183    8.1013259    9.8902676     660.6247
  354700    336.18284      0.17735    -1.584326    3.9255555   -101.28201    2.3900274    8.0202383    9.8906877    654.04017
  354800    341.49046       0.1774 -0.072478859    4.7533042   -101.23648    2.4277609    8.1995725    9.8911077    668.69304
  354900    306.98701      0.17745    1.2208772    5.0032367   -101.16475    2.1824652     8.212512    9.8915278    669.77673
  355000    271.73547       0.1775   -0.6415231    5.2637234   -101.50508    1.9318512    8.0715092    9.8919479    658.30511
  355100     271.3071      0.17755  -0.96603183    5.0589729   -101.58121    1.9288057    8.2565751    9.8923679    673.42752
  355200    315.51567       0.1776    1.9731369      3.90125   -101.62485    2.2430981     8.269351     9.892788    674.49819
  355300    249.60008      0.17765  -0.41112279    4.8463489   -100.97896    1.7744839    8.1007381     9.893208    660.77316
  355400     355.9269       0.1777   -1.0620654    3.3395494   -101.29714     2.530394    8.0295959    9.8936281    654.99794
  355500    337.53844      0.17775  -0.45561493    2.4290319   -101.08731    2.3996647    8.1925386    9.8940481    668.31802
  355600    245.90638       0.1778    1.9769536    4.5626149   -100.91154    1.7482242    8.2056866    9.8944682    669.41902
  355700    291.22083      0.17785   -1.4300776    4.5786605   -101.49092    2.0703786    8.1192078    9.8948883    662.39221
  355800    281.51042       0.1779    0.3834635    4.3600243   -101.43855    2.0013443    8.1640612    9.8953083    666.07977
  355900    386.25693      0.17795   0.36745232    3.6105757   -101.76172    2.7460195    8.1094373    9.8957284    661.65126
  356000    290.32746        0.178  -0.96091159    4.2569898   -101.34145    2.0640273    8.0878014    9.8961484    659.91399
  356100    249.23584      0.17805   0.67693274     3.430615   -101.45548    1.7718944    8.1674499    9.8965685     666.4411
  356200       254.11       0.1781  -0.10545425    3.4912926   -101.65748    1.8065462    8.0863014    9.8969886    659.84762
  356300     266.6023      0.17815  -0.50939591    4.3362606   -101.49057    1.8953578    8.2003704    9.8974086    669.18412
  356400    295.95053       0.1782    0.9913777    4.2006664   -101.11687    2.1040035    8.1959579    9.8978287    668.85243
  356500    278.59566      0.17825  -0.13853654    4.8647382   -100.83921    1.9806223    8.1209962    9.8982487    662.76311
  356600    286.86467       0.1783  -0.36224506    4.4718242   -100.86907    2.0394093     8.092503    9.8986688    660.46578
  356700    326.66405      0.17835  -0.30022436    4.0139047   -101.04212    2.3223553     8.154108    9.8990888    665.52188
  356800    281.14933       0.1784   0.74891693    4.6701814   -101.13898    1.9987772    8.2268474    9.8995089    671.48723
  356900    267.80621      0.17845 -0.043997894    4.7842234   -101.35971    1.9039168    8.0846112     9.899929     659.9057
  357000    282.87426       0.1785   -1.3881481    4.3455877   -101.53736    2.0110402    8.2076144     9.900349    669.97425
  357100    285.32047      0.17855    1.7643566    5.5331743   -101.16606    2.0284311    8.3456637    9.9007691    681.27189
  357200    355.61641       0.1786   0.12376179    6.2184557   -101.12335    2.5281866    8.0740389    9.9011891    659.12662
  357300    331.19288      0.17865   -1.8097218    4.5112862    -101.0347    2.3545522    8.1986742    9.9016092    669.32966
  357400    341.72897       0.1787    2.0104791    4.3477428   -101.32812    2.4294565    8.1464964    9.9020293    665.09814
  357500    270.02756      0.17875   -1.6380845    5.5813655   -101.20762    1.9197091     8.090749    9.9024493    660.57483
  357600    275.21835       0.1788   0.38343349    4.9114488   -101.31624     1.956612    8.2033064    9.9028694    669.79306
  357700       288.93      0.17885     1.025615    3.8051422   -101.30832    2.0540923    8.1456262    9.9032894    665.11173
  357800    317.52329       0.1789   -1.8237666    4.2014132   -101.36866    2.2573709    8.1199112    9.9037095    663.04015
  357900    307.38836      0.17895   0.86616159    6.2295058    -101.2867    2.1853185    8.3351135    9.9041295    680.64161
  358000    305.45153        0.179    1.4806468    4.8928334    -101.1831     2.171549    8.1322636    9.9045496    664.10513
  358100    340.44769      0.17905   -2.0783697    4.0997169   -101.00623    2.4203475    8.0714756    9.9049697    659.16896
  358200    342.94368       0.1791   0.73179246    3.6221552   -101.09357    2.4380923    8.1971682    9.9053897    669.46222
  358300    268.66072      0.17915   0.17945741    4.3906906   -101.08183    1.9099918    8.1921263    9.9058098    669.07882
  358400    258.79846       0.1792  -0.33498552     3.554178   -101.10324    1.8398779    8.1568635    9.9062298    666.22704
  358500    279.34993      0.17925 -0.034182199    5.7942307   -101.09805    1.9859847    8.2385915    9.9066499    672.93086
  358600    314.97668       0.1793   0.95116857    4.9054874   -101.22715    2.2392662    8.1603025      9.90707    666.56445
  358700    388.85785      0.17935   -1.5430911    5.3492927   -101.19721    2.7645102    8.1700889      9.90749    667.39214
  358800    302.75069       0.1794    0.6756248    6.2673191   -100.67166    2.1523479    8.2876957    9.9079101    677.02781
  358900    312.95026      0.17945    1.0724738    5.6996142    -101.2516    2.2248598    8.2094959    9.9083301    670.66805
  359000    266.12106       0.1795   -1.2864214    5.0544407   -101.20872    1.8919366    8.0963803    9.9087502    661.45521
  359100    285.89187      0.17955  -0.10726815    5.3114609   -101.35097    2.0324934    8.2258763    9.9091702    672.06322
  359200    312.59114       0.1796   0.32194305    5.8051072   -101.36362    2.2223067    8.2896136    9.9095903    677.29933
  359300    337.81124      0.17965   0.69634187    5.2167562   -101.16358    2.4016041    8.2530879    9.9100104     674.3436
  359400    333.98512       0.1797  -0.71749338     5.295952   -100.50204    2.3744031    8.1904846    9.9104304    669.25677
  359500    392.06854      0.17975  -0.31410024    4.5060548   -101.03454     2.787336    8.2137494    9.9108505    671.18622
  359600    315.67277       0.1798     0.873622    5.8523173   -101.04417    2.2442149    8.2995655    9.9112705    678.22743
  359700    311.12883      0.17985  0.084268218    5.7807436    -101.2121    2.2119106    8.1672802    9.9116906    667.44557
  359800    283.98856       0.1799  -0.67482793    4.4574544   -101.28373    2.0189622    8.1330146    9.9121106    664.67348
  359900    264.74452      0.17995   0.80807121    3.7881333   -101.38014    1.8821504      8.19142    9.9125307    669.47506
  360000    297.40224         0.18  -0.65024089    4.3175425   -101.16234    2.1143241      8.07184    9.9129508    659.72988
  360100    298.29775      0.18005  -0.70120049        5.517   -100.77177    2.1206906    8.2388186    9.9133708    673.40596
  360200    313.61669       0.1801    1.3222431    5.0788723   -100.82322    2.2295976    8.2089756    9.9137909    670.99515
  360300     314.3997      0.18015  -0.54998719    4.1687717   -101.00185    2.2351643    8.1777484    9.9142109    668.47099
  360400    270.03234       0.1802   0.23648251    3.4728233    -101.1823    1.9197431    8.1658721     9.914631    667.52846
  360500    306.66719      0.18025 -0.0097257644    4.4171395   -101.57726    2.1801915    8.1131416    9.9150511    663.24605
  360600    252.37178       0.1803  -0.41373106    4.8875052   -101.07379    1.7941887    8.1342357    9.9154711    664.99865
  360700    302.82108      0.18035   0.20472944    4.1758187   -101.15817    2.1528484    8.1640947    9.9158912    667.46799
  360800    268.03375       0.1804 -0.040175022    3.9654727   -100.84991    1.9055345    8.1900714    9.9163112    669.62012
  360900    280.24513      0.18045  0.082683062     4.073817   -100.89506     1.992349    8.1389301    9.9167313      665.467
  361000    304.39049       0.1805  -0.09756487    4.0103525   -101.16383    2.1640057    8.1870247    9.9171513    669.42774
  361100    259.62454      0.18055  -0.01371727    5.4350666     -101.143    1.8457508    8.1776252    9.9175714    668.68749
  361200     225.9542       0.1806 -0.044534727    4.5704533   -100.90074     1.606378    8.2968769    9.9179915    678.46748
  361300    372.18304      0.18065   0.36613311    4.9576172   -101.44882    2.6459638    8.1989192    9.9184115     670.4855
  361400    300.99184       0.1807   0.15546354    4.2601975   -100.98312    2.1398437    8.1456132    9.9188316    666.15449
  361500    332.25865      0.18075  -0.46783193    4.9157792   -101.19428    2.3621291    8.1671382    9.9192516    667.94311
  361600     285.0238       0.1808   0.11493157     5.347947   -101.07189     2.026322    8.1703639    9.9196717    668.23522
  361700    274.92396      0.18085   0.57410975    4.7850534   -101.32328    1.9545191     8.060178    9.9200918    659.25128
  361800    310.13273       0.1809   -0.8552506    4.2005911   -101.49756    2.2048291    8.0538708    9.9205118     658.7633
  361900    328.10475      0.18095   0.17628297    3.9035094   -101.34089    2.3325977    8.1449169    9.9209319    666.23859
  362000    329.26663        0.181   0.59571436     2.111467   -100.96678    2.3408579    8.0157107    9.9213519    655.69753
  362100    393.80453      0.18105   -1.3223184    2.3343272   -101.14485    2.7996777    8.1210202     9.921772    664.34014
  362200    313.84157       0.1811    0.9036833    4.9166745   -100.94755    2.2311964    8.2635941     9.922192    676.03202
  362300    305.63607      0.18115   0.60165059    4.8877524   -101.06391     2.172861    8.0642695    9.9226121     659.7535
  362400    274.25543       0.1812   -1.2753961    3.7245727   -101.03423    1.9497663    8.1025808    9.9230322    662.91589
  362500    295.83609      0.18125    0.7747434    3.6703516     -101.433    2.1031899    8.2018267    9.9234522    671.06414
  362600    257.80114       0.1813   0.12553759    3.9789077   -101.36256    1.8327877    8.1331889    9.9238723    665.47644
  362700     344.2451      0.18135  -0.15028587    3.7061348   -101.31227    2.4473445    8.0690924    9.9242923    660.25986
  362800    307.01312       0.1814   -1.1283992    4.8697079   -100.92676    2.1826508    8.2056862    9.9247124    671.46518
  362900    300.39255      0.18145    1.7559212    6.1396867   -101.02398    2.1355831    8.2160812    9.9251324    672.34425
  363000    256.27391       0.1815   -1.0606873    6.1980236    -100.9242    1.8219302     8.136838    9.9255525    665.88774
  363100    287.14023      0.18155   0.57203824    5.0999088   -101.44736    2.0413683    8.1350887    9.9259726    665.77276
  363200    273.73812       0.1816  -0.44171737    4.4263275   -101.73495    1.9460886    8.1825889    9.9263926     669.6885
  363300    264.87647      0.18165   0.20993253    4.3364965   -101.67503    1.8830884    8.1468714    9.9268127    666.79348
  363400    316.53281       0.1817  -0.31158808    5.3670041   -101.39089    2.2503292     8.209729    9.9272327     671.9666
  363500     291.5438      0.18175   0.63461317    6.3809066   -100.96903    2.0726747    8.1930758    9.9276528    670.63191
  363600    301.40106       0.1818   -0.4373511    4.7164736   -101.00462    2.1427529    8.2113965    9.9280729    672.15996
  363700    304.03561      0.18185   0.14446006    5.4539262   -100.99881    2.1614828      8.18448    9.9284929      669.985
  363800    351.61338       0.1819   0.78494969    5.6300309   -101.38219    2.4997278    8.1427885     9.928913    666.60032
  363900    289.37949      0.18195   -1.2361983    4.6099348   -101.37039    2.0572879    8.1207406     9.929333    664.82352
  364000    246.21951        0.182   0.49141937    3.7658799    -101.3845    1.7504503    8.1564492    9.9297531    667.77514
  364100    319.14427      0.18205   0.20551561    3.6828769   -101.73198    2.2688949    8.1357787    9.9301731    666.11101
  364200    274.62062       0.1821  -0.17274944    3.5678175   -101.02365    1.9523625    8.1258135    9.9305932    665.32325
  364300    365.00223      0.18215  0.062890062    4.2573031   -101.27502    2.5949133    8.0795339    9.9310133    661.56196
  364400    312.20545       0.1822  0.049949877    3.1189727   -101.02374    2.2195647     8.000565    9.9314333    655.12361
  364500    274.14143      0.18225  -0.83708889    4.9533216   -101.06337    1.9489558    8.1631756    9.9318534    668.46719
  364600    304.57875       0.1823   0.86534825    5.9343947   -101.51229    2.1653441    8.1819888    9.9322734    670.03611
  364700    263.62793      0.18235   -0.3604588    5.7561977   -101.48772    1.8742121    8.1231745    9.9326935    665.24785
  364800    277.25686       0.1824   0.33736225    4.8042856   -101.41016    1.9711044    8.1703661    9.9331136     669.1409
  364900    330.67136      0.18245  -0.54174348    4.8055194   -101.14865    2.3508446    8.1745427    9.9335336    669.51127
  365000    316.95196       0.1825   0.23835198    4.5344728   -100.92365    2.2533091    8.2254538    9.9339537    673.70948
  365100    279.51924      0.18255   0.44222213    6.5734867   -100.75655    1.9871884     8.211064    9.9343737    672.55932
  365200    267.78695       0.1826  -0.41539793    6.3427255   -101.10956    1.9037799    8.1560546    9.9347938     668.0818
  365300     292.4332      0.18265 -0.010289744    6.1875112   -101.59261    2.0789977     8.215737    9.9352138    672.99898
  365400     238.1213       0.1827   0.81938415    4.1427129   -101.23751    1.6928776    8.1097059    9.9356339    664.34144
  365500    316.51755      0.18275   -1.3112604     3.397589    -101.1337    2.2502207    8.1203006     9.936054    665.23747
  365600    350.36894       0.1828   0.80147316    3.9943998   -101.21548    2.4908807    8.2580478     9.936474    676.55071
  365700    323.88836      0.18285   0.32130807    3.9411992   -101.36273    2.3026221    8.0905335    9.9368941    662.85492
  365800    273.78165       0.1829  -0.44137548    4.4961042    -101.2429    1.9463981    8.0985593    9.9373141    663.54052
  365900    325.95472      0.18295  -0.63820903    3.9184706   -101.61536    2.3173125    8.1330011    9.9377342    666.39061
  366000    302.44546        0.183   0.64159027    4.5442905   -101.34112    2.1501779     8.193921    9.9381542    671.41056
  366100    357.67764      0.18305   0.47607519    5.0901163     -101.286    2.5428405    8.0941855    9.9385743    663.26625
  366200    323.77397       0.1831  -0.98132016    3.9585913   -100.91596    2.3018088    8.0802341    9.9389944    662.15101
  366300     234.6346      0.18315   0.14275972    2.6003096   -100.67001    1.6680896    8.1749273    9.9394144    669.93915
  366400    284.24836       0.1832   0.58556107    3.5911259   -101.36509    2.0208092    8.2053371    9.9398345    672.45966
  366500    295.09535      0.18325   0.29080801    3.7235951   -101.78452    2.0979237    8.1070826    9.9402545     664.4354
  366600    271.77626       0.1833  -0.99419615     4.625429   -101.69878    1.9321411    8.0408343    9.9406746    659.03371
  366700    238.75586      0.18335   0.39439707    4.4085335   -101.22011     1.697389    8.1677353    9.9410947    669.46291
  366800    353.98813       0.1834   0.56888145    3.9526772   -101.59165    2.5166107    8.0713331    9.9415147    661.58933
  366900    310.81304      0.18345   -1.1104091    4.4907175   -101.44897    2.2096656    8.1599575    9.9419348    668.88193
  367000    212.69394       0.1835    1.4684522    4.7930502   -100.91448    1.5121067    8.1523759    9.9423548    668.28869
  367100    367.18011      0.18355   -1.0045279    3.3379774   -101.48215    2.6103965    8.0119162    9.9427749     656.8023
  367200    317.78973       0.1836  -0.79720479    4.0790104   -101.12263    2.2592651    8.1788576    9.9431949    670.51618
  367300    323.44285      0.18365    1.0649622    4.5085547   -101.18113    2.2994549    8.2541149     9.943615    676.71448
  367400    266.64361       0.1837   0.41427761    4.9214323   -101.17907    1.8956515     8.157364    9.9440351     668.8106
  367500    234.48446      0.18375  -0.75541912    5.3540952   -101.48347    1.6670222    8.0986445    9.9444551    664.02432
  367600    210.57301       0.1838   0.47915329    4.4420301   -101.55021    1.4970284    8.0993178    9.9448752    664.10758
  367700    299.34574      0.18385  -0.82302485    4.0080041   -101.43635    2.1281411    8.1564382    9.9452952    668.81945
  367800    341.88937       0.1839   0.99009872    4.6867348    -101.3205    2.4305968    8.1628388    9.9457153    669.37256
  367900    345.96886      0.18395  -0.87585158    4.1659485   -101.26092    2.4595992    8.1413625    9.9461354    667.63964
  368000    281.15856        0.184   0.72720497    4.8663422   -101.03876    1.9988428    8.1040845    9.9465554    664.61069
  368100    297.90118      0.18405  -0.24272403    4.1332302   -101.46331    2.1178713    8.1142274    9.9469755    665.47061
  368200    276.97852       0.1841   0.24617934    3.8031995   -101.44841    1.9691256    8.0359804    9.9473955    659.08119
  368300    311.39679      0.18415   -1.1856112    4.1109692   -101.56676    2.2138157    8.1351826    9.9478156    667.24556
  368400    327.41512       0.1842    1.4430086    4.3002836   -101.11556    2.3276949    8.2714586    9.9482356    678.45152
  368500    335.39448      0.18425  -0.12739233    3.0356753   -100.87878    2.3844226     8.053706    9.9486557    660.61865
  368600    317.19918       0.1843   -1.1434305    4.2516337   -100.84087    2.2550667    8.1706039    9.9490758     670.2357
  368700    233.57741      0.18435    1.1311904    3.8855107    -100.6456    1.6605737    8.2122965    9.9494958    673.68419
  368800    295.16049       0.1844 -0.0010496559    5.0500239   -101.28125    2.0983868    8.0805167    9.9499159    662.90181
  368900    274.96949      0.18445   -1.2021298    4.4034522   -101.69773    1.9548428    8.1611929    9.9503359     669.5485
  369000    259.33905       0.1845    1.4442462    3.8330289   -101.77498    1.8437212    8.1936412     9.950756    672.23896
  369100    261.41102      0.18455  -0.70231248    5.2754433   -101.43424    1.8584514    8.0787743     9.951176     662.8428
  369200    287.40955       0.1846  -0.43064957    4.4744844    -101.2308     2.043283    8.1758318    9.9515961    670.83443
  369300     313.8938      0.18465    1.0464585    3.5588586    -101.1307    2.2315677    8.1908947    9.9520162    672.09873
  369400    368.41435       0.1847   -0.2224605    4.1807408   -101.29967    2.6191711    8.1100852    9.9524362    665.49604
  369500    324.48748      0.18475  -0.21989232    4.1253421   -101.30324    2.3068814    8.0673517    9.9528563    662.01737
  369600    300.47308       0.1848 -0.0021047933    5.0761082   -101.39638    2.1361557    8.0832359    9.9532763    663.34884
  369700    275.78146      0.18485  -0.57722957    3.7678625   -101.27953    1.9606153     8.143611    9.9536964    668.33171
  369800    339.03268       0.1849   0.46382049    3.3199413   -101.27755    2.4102877    8.1638019    9.9541165    670.01702
  369900    313.29337      0.18495   0.47982042    2.0581591   -100.85406    2.2272991    8.1445222    9.9545365    668.46291
  370000    356.94033        0.185  -0.13520396    3.8458221   -101.10282    2.5375988    8.0434992    9.9549566    660.19929
  370100    332.18141      0.18505   -1.3281502    4.1286777   -101.46448      2.36158    8.1369921    9.9553766    667.90124
  370200    269.01115       0.1851    1.6070344    4.6038745   -101.25832    1.9124831    8.2091869    9.9557967    673.85557
  370300    276.02248      0.18515  -0.60918588    4.0620072   -101.19362    1.9623288    8.1067732    9.9562167    665.47696
  370400    264.31516       0.1852  -0.23298193    4.0774506   -100.92045    1.8790979     8.115672    9.9566368    666.23557
  370500    335.24243      0.18525 0.0003605197    3.6393217   -100.88573    2.3833417    8.1591653    9.9570569     669.8343
  370600    317.47948       0.1853   0.28243574    2.3217024   -100.49278    2.2570594    8.2667554    9.9574769    678.69564
  370700    348.45246      0.18535    0.1526682     3.319504    -101.1377    2.4772558    8.1971733     9.957897    673.01138
  370800    303.77682       0.1854  -0.11388796    3.0427831   -101.42352     2.159643    8.1979199     9.958317    673.10106
  370900    281.07429      0.18545 -0.017343953    3.9189663   -101.42619    1.9982437    8.1548344    9.9587371    669.59172
  371000    284.47447       0.1855  -0.11616733    3.6293673   -101.30572    2.0224166    8.1787582    9.9591572    671.58443
  371100    282.93235      0.18555   0.41596444    4.2330409   -100.91642    2.0114532    8.1596643    9.9595772    670.04482
  371200    334.30083       0.1856  -0.53938914    4.2043846    -100.9215    2.3766476    8.1385875    9.9599973    668.34225
  371300    287.97608      0.18565   0.15525696    2.6652127   -100.87986    2.0473106    8.1721139    9.9604173    671.12375
  371400    316.13724       0.1857 -0.0063107968    2.5563906   -101.33563     2.247517    8.1995696    9.9608374    673.40691
  371500    303.56967      0.18575  -0.18043057    4.0708151   -101.37157    2.1581703    8.2290411    9.9612574    675.85582
  371600     307.3831       0.1858   0.50373667    4.0494979   -101.47885    2.1852811     8.310966    9.9616775    682.61314
  371700    289.92924      0.18585   0.23090714    3.8667675   -101.54687    2.0611962    8.1639867    9.9620976    670.56941
  371800    253.63591       0.1859  -0.67964367    5.3815432    -101.6796    1.8031758    8.1613516    9.9625176    670.38123
  371900    269.51604      0.18595   0.57695545    5.7088276   -101.80546    1.9160726    8.1172835    9.9629377    666.78955
  372000    334.45352        0.186   -1.1983847    4.6841761   -101.68274    2.3777331    8.1708685    9.9633577    671.21956
  372100    314.84724      0.18605    1.1060113    4.5108483   -101.34131     2.238346    8.2815685    9.9637778    680.34202
  372200     280.5016       0.1861 -0.057195142    4.4044394   -101.16621    1.9941723    8.1827341    9.9641978    672.25098
  372300    302.88153      0.18615  -0.65302952    3.8785142   -101.26362    2.1532781    8.3323397    9.9646179    684.57065
  372400    299.43327       0.1862    1.0854643    4.6332242   -101.28089    2.1287634    8.2659375     9.965038     679.1438
  372500    266.55354      0.18625   -0.1120219     5.071959   -101.43434    1.8950112    8.1647359     9.965458    670.85717
  372600    264.81596       0.1863  -0.64356005    4.7062923   -101.70656    1.8826582    8.1394914    9.9658781    668.81114
  372700    244.57155      0.18635  0.068442995    4.5665967   -101.54466    1.7387345    8.1726631    9.9662981    671.56512
  372800    285.66937       0.1864   0.66558639    5.3186232   -101.24411    2.0309115     8.083266    9.9667182    664.24717
  372900    288.72824      0.18645   -1.2337216    4.5335828   -101.12829     2.052658    8.1116923    9.9671383     666.6112
  373000    257.46072       0.1865   0.44042694    3.7322387   -100.90304    1.8303675    8.1967426    9.9675583    673.62895
  373100    316.12185      0.18655   0.55801181    3.8820656   -101.05939    2.2474076    8.1624365    9.9679784    670.83785
  373200    298.95261       0.1866  -0.46025601    4.3262773   -100.74294    2.1253462    8.1793102    9.9683984    672.25297
  373300     323.9421      0.18665   0.15232062    4.1184343   -101.38298    2.3030041     8.167339    9.9688185    671.29735
  373400    298.24772       0.1867   0.37903671    4.8182841   -101.51229    2.1203349    8.0913161    9.9692385    665.07682
  373500    286.06887      0.18675   -0.3538275    4.3871947   -101.44411    2.0337517    8.1085505    9.9696586    666.52151
  373600    319.47591       0.1868  -0.53198653    3.8381827   -101.59874    2.2712527    8.0763387    9.9700787    663.90168
  373700    309.50316      0.18685   0.57967054    3.8752247   -101.20151    2.2003533    8.2078248    9.9704987     674.7387
  373800    316.26721       0.1869  -0.48099682    5.5712388   -101.18855     2.248441    8.1974541    9.9709188    673.91455
  373900    278.86053      0.18695   0.35437917     5.022723   -101.39765    1.9825054    8.2522867    9.9713388    678.45093
  374000    254.73697        0.187   0.65995293    4.9653868   -101.59858    1.8110036     8.203478    9.9717589     674.4666
  374100    287.32051      0.18705   -0.8247639    4.4514968   -101.69597      2.04265    8.0588054     9.972179    662.59994
  374200       282.25       0.1871   0.13776275    5.0466418   -101.41065    2.0066022    8.1867291     9.972599    673.14626
  374300    294.46013      0.18715  -0.20537713    4.3820851   -101.40212    2.0934077    8.1914426    9.9730191    673.56219
  374400    315.35646       0.1872    0.7602262     4.561105   -101.57791    2.2419662    8.2209856    9.9734391    676.01991
  374500    315.35831      0.18725  -0.59977744    6.2445029   -101.69862    2.2419794    8.1756649    9.9738592    672.32146
  374600     315.6269       0.1873  0.061530736    4.8121721   -101.74321    2.2438888    8.2421784    9.9742792    677.81971
  374700    266.43166      0.18735   0.28852292     5.502432   -101.49948    1.8941448    8.2331338    9.9746993    677.10441
  374800    323.69567       0.1874  0.077930703    5.0804426   -101.70834    2.3012522    8.1502232    9.9751194    670.31396
  374900    336.89643      0.18745  -0.46322547    4.6341976    -101.6698    2.3951005    8.1814609    9.9755394    672.91143
  375000    323.45377       0.1875  -0.26209858     4.460517    -101.7797    2.2995324    8.2569179    9.9759595    679.14625
  375100    258.27597      0.18755    1.5108912     4.910879   -101.68605    1.8361634    8.1827745    9.9763795    673.07616
  375200     223.7685       0.1876   -1.2575382    5.1965492   -101.35568    1.5908392    8.1234043    9.9767996    668.22078
  375300    294.43148      0.18765  -0.72104311    5.1994711   -101.28543    2.0932041     8.212751    9.9772197    675.59877
  375400    296.68928       0.1877      1.87691    3.4444902   -101.13477    2.1092555    8.2926446    9.9776397    682.19971
  375500    341.88339      0.18775  -0.66018262    4.1979536    -101.5776    2.4305543    8.0782305    9.9780598    664.58878
  375600    348.37245       0.1878    -1.035972    5.5900825   -102.08265    2.4766871    8.2035879    9.9784798    674.93023
  375700    301.52334      0.18785   0.83396156    4.1982122   -101.85666    2.1436223    8.2805575    9.9788999    681.29139
  375800    321.12405       0.1879   0.34008388     4.979664   -101.76457    2.2829698     8.176199    9.9793199    672.73351
  375900    334.93348      0.18795  -0.53044962     3.684388   -101.51899    2.3811453    8.1274612      9.97974    668.75154
  376000    309.60392        0.188  -0.45988858    3.7339327   -101.31014    2.2010696    8.2499348    9.9801601    678.85759
  376100    231.04034      0.18805    1.5821991     3.766526   -101.32074     1.642537    8.1583648    9.9805801    671.35088
  376200    307.55156       0.1881   -1.2138888    4.0893906   -102.04485    2.1864788    8.0248482    9.9810002    660.39161
  376300    265.31546      0.18815    -0.487616    3.9111902   -101.62677    1.8862093    8.1370067    9.9814202    669.64969
  376400    324.53841       0.1882   0.84874572    3.5571356   -101.56914    2.3072435    8.1619893    9.9818403    671.73395
  376500    370.72899      0.18825  -0.14812433    2.8123973   -101.85903    2.6356266    8.1672128    9.9822603    672.19213
  376600    297.71797       0.1883   0.12541967    3.7060684   -101.70808    2.1165688    8.1592141    9.9826804    671.56206
  376700    299.08126      0.18835   0.47513058    3.0077304   -101.81341    2.1262608    8.0813107    9.9831005    665.17804
  376800    265.40588       0.1884  -0.90013042    4.3758316   -101.45416    1.8868522    7.9602678    9.9835205    655.24249
  376900    289.30451      0.18845 -0.067589834    3.8458247   -100.96854    2.0567549    8.1226228    9.9839406    668.63474
  377000    403.03238       0.1885 -0.082052125    3.9950776   -101.57738    2.8652813    8.1482987    9.9843606    670.77653
  377100    268.62294      0.18855   0.71497044    3.1715737   -101.12038    1.9097232    8.1789438    9.9847807     673.3276
  377200    277.81563       0.1886   0.19856183    2.9313368   -101.33548    1.9750769    8.0671666    9.9852008    664.15353
  377300    312.47754      0.18865   -1.3014555    2.7294538   -101.74227     2.221499    8.0813676    9.9856208    665.35066
  377400    243.15391       0.1887  0.075554159     4.011495   -101.70276    1.7286561    8.3191056    9.9860409    684.95278
  377500    256.65092      0.18875     1.798253    4.1500644   -101.65699    1.8246104    8.3116648    9.9864609    684.36893
  377600    316.76776       0.1888  -0.65445028    2.3436272   -101.64502    2.2519996    8.1001632     9.986881    666.98229
  377700    292.09088      0.18885  -0.74272446    2.2632447   -101.42248     2.076564    8.0466362     9.987301    662.60265
  377800    317.55398       0.1889  -0.27039618    2.3202295   -101.59587     2.257589    8.2325935    9.9877211    677.94387
  377900    318.83596      0.18895    1.0810076    3.4210418   -101.67028     2.266703    8.2166064    9.9881412    676.65581
  378000    264.60125        0.189   0.12174246     4.425288   -101.69242    1.8811318    8.0910086    9.9885612    666.34057
  378100    284.35264      0.18905   -1.4241895    4.6886016   -102.23406    2.0215505    8.1202992    9.9889813    668.78095
  378200    284.50736       0.1891    1.4319797    4.3608897   -102.27765    2.0226505    8.1568597    9.9894013    671.82028
  378300    313.39731      0.18915   -1.0389653    2.1960343   -102.04824     2.228038    8.1646475    9.9898214    672.48999
  378400     372.5208       0.1892   0.25344689    2.4351059   -101.90536    2.6483651    8.2153873    9.9902415    676.69768
  378500    300.94157      0.18925   0.51406561     2.623894   -101.77198    2.1394863    8.1771805    9.9906615    673.57892
  378600    312.14946       0.1893  -0.27719436    1.5956056   -102.14525    2.2191666    8.0580204    9.9910816    663.79126
  378700    281.80133      0.18935   -0.6870629    1.8297321   -102.34448    2.0034124    8.2413412    9.9915016    678.92112
  378800    296.07226       0.1894     1.508459    3.3138066    -102.5921    2.1048689    8.1923263    9.9919217    674.91165
  378900    303.30838      0.18945   -0.9610272    3.2788934   -102.55631    2.1563127    8.1064149    9.9923417    667.86205
  379000    356.54023       0.1895   0.22165182     3.424946   -102.40037    2.5347543    8.1529755    9.9927618    671.72627
  379100    288.32853      0.18955  -0.19087196    2.6940717    -101.4967    2.0498163    8.1372851    9.9931819    670.46171
  379200    312.26606       0.1896  -0.15158934    1.3994668   -101.52729    2.2199956    8.1794714    9.9936019    673.96593
  379300    337.68925      0.18965  -0.24556592     1.375313   -102.28272    2.4007369    8.2454958     9.994022    679.43472
  379400    271.17011       0.1897   0.70356957   0.94591789   -102.28694    1.9278319    8.3397577     9.994442    687.23085
  379500    297.94451      0.18975   0.75505633    2.0257703   -102.66278    2.1181793    8.2467432    9.9948621    679.59463
  379600    292.20426       0.1898   -1.3424301    1.6319549   -102.56428    2.0773701    8.1044834    9.9952821    667.89941
  379700     329.1332      0.18985  -0.56454954    1.3399994   -102.62115    2.3399093    8.3489333    9.9957022    688.07371
  379800    337.66203       0.1899    1.4536442    0.5244475   -102.74011    2.4005434    8.3576134    9.9961223    688.81802
  379900    260.21314      0.18995  -0.75944368   -2.5024836   -102.78069    1.8499354    8.3638377    9.9965423    689.35998
  380000    297.16993         0.19   0.20901656  -0.12582574   -102.99901    2.1126725    8.3446941    9.9969624    687.81103
  380100    296.08133      0.19005   0.22357939    1.5886643    -102.9504    2.1049334    8.3573639    9.9973824    688.88428
  380200     231.7936       0.1901  0.043480151    0.7282865   -102.70135    1.6478921    8.3034967    9.9978025    684.47286
  380300    264.76552      0.19015  -0.61465216   0.40953894   -102.82264    1.8822997    8.2926565    9.9982226      683.608
  380400    328.54646       0.1902   0.74989854   0.68330225   -102.83495     2.335738    8.4168377    9.9986426    693.87407
  380500    316.50727      0.19025  -0.10063508    1.6305433   -102.78034    2.2501476    8.3152314    9.9990627    685.52657
  380600    212.10323       0.1903 0.0015171877  -0.68214419   -102.47855    1.5079072    8.1806872    9.9994827    674.46277
  380700    241.31841      0.19035  -0.89584673  -0.71242735    -102.7656    1.7156069    8.3566589    9.9999028    688.99983
  380800    398.78526       0.1904   0.81842333   0.37163578   -103.23369    2.8350872    8.3527131    10.000323    688.70343
  380900    305.84296      0.19045   0.56933497  0.049997645    -102.6911    2.1743318    8.3043327    10.000743     684.7431
  381000    335.37344       0.1905   -1.7194931   0.70426901   -103.08117    2.3842731    8.3326508    10.001163    687.10696
  381100    256.76856      0.19055    1.6536803    1.7128644    -102.7418    1.8254468    8.3634337    10.001583    689.67427
  381200     292.1003       0.1906  -0.47116429   0.61613517   -102.81893     2.076631    8.2831046    10.002003    683.07878
  381300    364.18449      0.19065   -0.2302208    0.6577421   -102.78017    2.5890997    8.2114684    10.002423    677.19962
  381400    359.07132       0.1907  -0.51536129   0.25567646   -102.31725    2.5527486    8.4072294    10.002843    693.37315
  381500    320.65346      0.19075   0.37379197   -1.7525792   -102.43093    2.2796242    8.3854204    10.003263    691.60353
  381600    318.00253       0.1908    1.0022691  -0.64378471   -102.82272     2.260778    8.3835314    10.003683    691.47677
  381700    273.89884      0.19085  -0.90889251    1.6001635   -102.75681    1.9472312    8.2709617    10.004103    682.22062
  381800    321.14183       0.1909   0.36903311    2.0711244   -103.30208    2.2830962    8.2323192    10.004523    679.06175
  381900     248.2537      0.19095   -1.1478148   0.45727332   -102.82321     1.764912    8.3737858    10.004943    690.75995
  382000       339.02        0.191    1.1714728   0.77494755   -102.78532    2.4101976     8.405373    10.005364    693.39471
  382100    327.54634      0.19105   0.14021916 -0.071682508   -102.72435    2.3286278     8.357723    10.005784    689.49281
  382200    301.08298       0.1911  -0.55769384    -1.810592   -102.73672    2.1404916    8.2716059    10.006204    682.41699
  382300    283.90195      0.19115  0.089452159    0.8567435   -103.12645    2.0183464     8.349602    10.006624    688.88068
  382400    306.44512       0.1912   0.32828961   0.32043092   -103.34484    2.1786127    8.2918383    10.007044    684.14362
  382500    293.90989      0.19125  -0.68318526    1.2079721   -103.13693     2.089496     8.327777    10.007464     687.1377
  382600    281.14565       0.1913   0.82325856    1.1426554   -102.83386     1.998751    8.3357243    10.007884    687.82231
  382700     317.5595      0.19135   -0.7694629   0.42199358   -102.85062    2.2576283    8.3485905    10.008304    688.91288
  382800    340.83768       0.1914   0.77932445  -0.12498856   -102.91601      2.42312    8.3595908    10.008724    689.84956
  382900    319.77714      0.19145  -0.74558555   0.88818569   -102.85746    2.2733942    8.3756735    10.009144    691.20575
  383000    289.84544       0.1915   0.98985697    1.1528754   -102.84351    2.0606005    8.3116221    10.009564    685.94866
  383100    298.89288      0.19155   -1.1592482  0.083284426   -103.02817    2.1249215    8.2533878    10.009984    681.17124
  383200    271.27065       0.1916   0.40845909   0.55943483   -102.91712    1.9285466    8.3951696    10.010404     692.9019
  383300    329.28118      0.19165   0.32856668   0.83140075   -103.14974    2.3409613    8.3304232    10.010824    687.58685
  383400    291.16215       0.1917   -0.3019823   0.73342303   -102.63177    2.0699614    8.2687565    10.011244    682.52556
  383500    362.48947      0.19175    -0.114782  -0.22024018   -102.84542    2.5770493    8.3854597    10.011664     692.1876
  383600    298.78264       0.1918    0.3396386   0.83441293   -102.65587    2.1241378    8.4446734    10.012084    697.10472
  383700    244.75548      0.19185   0.18314219  0.086175589   -102.81402    1.7400421    8.2807174    10.012505    683.59889
  383800    239.50632       0.1919  -0.48609532   0.30661307   -102.87066    1.7027242     8.343925    10.012925    688.84578
  383900    292.04191      0.19195   0.86009246   0.83754857   -103.00118    2.0762159     8.299769    10.013345    685.22915
  384000     293.0305        0.192   -1.1558516    0.1198864   -102.91364    2.0832441    8.2620575    10.013765     682.1443
  384100    304.66509      0.19205   0.79347524   0.46655754   -102.90184     2.165958    8.3022507    10.014185    685.49155
  384200    346.74173       0.1921  -0.74712478   0.41719535   -102.79722    2.4650938    8.3284962    10.014605     687.6874
  384300    355.14268      0.19215   0.76928768   0.68006852   -102.55722    2.5248187    8.3288517    10.015025     687.7456
  384400    306.60563       0.1922  -0.47670371    1.1802579   -102.61266    2.1797539    8.3633873    10.015445     690.6263
  384500    287.49882      0.19225   0.75849211   0.14878887   -103.14872    2.0439177    8.2919059    10.015865    684.75228
  384600    295.65881       0.1923   -1.1162322    0.3913514   -103.23132    2.1019295    8.3332207    10.016285    688.19295
  384700    280.31778      0.19235   0.77809044   0.91438138   -102.93985    1.9928655    8.3453996    10.016705    689.22764
  384800    283.30532       0.1924  -0.38585093  -0.19064249   -102.53633    2.0141048    8.2953689    10.017125    685.12445
  384900     340.9341      0.19245 -0.006913655   0.35187101   -102.70835    2.4238055    8.3592943    10.017545    690.43308
  385000    317.73663       0.1925   0.28025104    1.2271979   -102.72418    2.2588876    8.3377591    10.017965    688.68326
  385100    302.06099      0.19255 -0.065389476   0.92741836   -102.80316    2.1474446    8.3626197    10.018385    690.76566
  385200    274.10502       0.1926 -0.031580594   0.87436283    -102.9468     1.948697    8.3400539    10.018805    688.93058
  385300    306.22342      0.19265   0.32255644   0.65851295   -103.14419    2.1770366     8.235469    10.019225    680.31985
  385400    307.06968       0.1927   -1.1054187   -1.1624759   -102.61358    2.1830529    8.3265039    10.019646    687.86895
  385500    336.08444      0.19275   0.78102996   0.40761929    -102.4796    2.3893278     8.405639    10.020066    694.43557
  385600    365.60791       0.1928   0.24753314   -1.1855804   -102.92778    2.5992192    8.3479258    10.020486    689.69648
  385700    314.22928      0.19285  -0.55985415   0.72550585   -103.16788    2.2339527    8.3184631    10.020906    687.29112
  385800    291.76758       0.1929   0.74388152    1.3963563    -103.0682    2.0742656    8.3252764    10.021326    687.88288
  385900    342.46285      0.19295  -0.68494091   0.47900148   -103.16401    2.4346739    8.3155847    10.021746    687.11089
  386000    292.51737        0.193  -0.21259465   -1.0372992   -102.62175    2.0795961    8.3612062    10.022166    690.90953
  386100    414.37501      0.19305   0.68562227   0.20468522   -102.86873    2.9459196    8.4094146    10.022586    694.92224
  386200    350.16617       0.1931 -0.033055183   0.24042341   -102.49302    2.4894392    8.3513231    10.023006     690.1507
  386300    322.19967      0.19315  -0.05931117   0.98964133     -102.687    2.2906167    8.2928083    10.023426    685.34378
  386400    354.60636       0.1932  -0.61452226  -0.36519882    -103.1535    2.5210058    8.3534633    10.023846    690.38544
  386500    288.90951      0.19325   0.81877214   0.67315266   -102.99949    2.0539467     8.415228    10.024266    695.51922
  386600    313.14333       0.1933 -0.043505266    0.2397258   -103.07725    2.2262324    8.3103203    10.024686    686.87737
  386700     280.2454      0.19335  -0.47749556   0.27849934   -102.69533    1.9923509    8.2937707    10.025106    685.53822
  386800    315.90976       0.1934   0.21928081   -0.4290257   -102.54809    2.2458998    8.3584442    10.025526    690.91288
  386900    317.45624      0.19345   0.16766609    0.4303056   -102.25389    2.2568942    8.3569895    10.025946    690.82158
  387000     345.4141       0.1935   0.45719974    0.7223679   -102.78266    2.4556552    8.2466644    10.026366    681.73023
  387100    285.00892      0.19355   -1.3594512 -0.048048699   -102.92661    2.0262162    8.2987625    10.026787    686.06579
  387200    283.55281       0.1936    1.1558583    1.4649372   -102.94072    2.0158642    8.3575193    10.027207    690.95221
  387300    331.30938      0.19365  -0.68605577   0.26526164   -103.13103    2.3553804    8.3153249    10.027627    687.49261
  387400    231.97584       0.1937   0.36836901  -0.17877277   -102.57272    1.6491877    8.4019195    10.028047    694.68116
  387500    289.60683      0.19375    0.5334808   0.14775696   -102.89547    2.0589042    8.2758323    10.028467    684.28478
  387600    335.20402       0.1938   -1.0752355  -0.13987003   -102.72865    2.3830686    8.2749254    10.028887    684.23845
  387700    320.11747      0.19385  0.088311202   0.36081591   -102.58554    2.2758137    8.4015828    10.029307    694.74062
  387800    299.16707       0.1939   0.95879153   0.55121266    -102.8692    2.1268708    8.4278109    10.029727    696.93865
  387900    355.03449      0.19395  -0.18026705   0.14232491   -103.61818    2.5240495    8.2018843    10.030147    678.28403
  388000    261.71714        0.194  -0.85774075   0.37073834   -103.05827    1.8606278    8.3044394    10.030567    686.79396
  388100    292.60211      0.19405   0.18171899   0.97459653   -103.08978    2.0801985    8.3861186    10.030987    693.57803
  388200     315.5674       0.1941     1.046642   0.38262127   -103.03429    2.2434658    8.3626449    10.031407     691.6656
  388300    329.55796      0.19415  -0.65931062   0.63385892   -102.86076    2.3429291    8.2484699    10.031827    682.25087
  388400    279.78924       0.1942  -0.38163466  -0.20224117   -102.62973    1.9891079    8.2174957    10.032247    679.71738
  388500    255.82315      0.19425   0.25157141   0.77865364   -102.89325    1.8187256    8.2876139    10.032667    685.54597
  388600    277.96308       0.1943  -0.11090382   0.55254173   -103.29461    1.9761252    8.3015286    10.033087    686.72574
  388700    323.65261      0.19435    0.1244813   0.16703459   -103.31943    2.3009461     8.306465    10.033507    687.16285
  388800    316.60555       0.1944   0.17702547   0.35693624   -102.75744    2.2508463    8.3630633    10.033927    691.87399
  388900    340.99077      0.19445   0.18877071   0.60726099   -102.83055    2.4242084    8.2337388    10.034348    681.20352
  389000    334.62521       0.1945    -0.921257   -0.4659223   -102.95019    2.3789537    8.3571665    10.034768    691.44403
  389100    287.84394      0.19455   0.80542572  -0.10195482   -102.97319    2.0463712    8.3802721    10.035188    693.38474
  389200    235.94935       0.1946   0.49745676    1.6401756   -103.11087    1.6774366    8.2672179    10.035608    684.05926
  389300    266.11977      0.19465   -1.1004883   0.94203279   -103.32674    1.8919274    8.2276455    10.036028    680.81339
  389400    272.43339       0.1947  0.038145301  -0.51908628   -102.56698    1.9368129    8.3453347    10.036448    690.58073
  389500    319.11811      0.19475    0.6874281  -0.57476561   -102.69063    2.2687089    8.3884829    10.036868    694.18031
  389600    298.11276       0.1948  -0.10877626  -0.38626207   -102.68542    2.1193754    8.2775829    10.037288    685.03156
  389700    275.24249      0.19485  -0.46059234  -0.67167384    -102.8316    1.9567836    8.3266026    10.037708    689.11715
  389800    274.56081       0.1949   0.39551894   0.33546979   -102.95446    1.9519373    8.4181208    10.038128    696.72043
  389900    301.45937      0.19495   0.36137324    1.2052736   -103.02234    2.1431675    8.2188151    10.038548    680.25348
  390000    283.69155        0.195  -0.95386166     1.380265   -102.48917    2.0168506    8.3010377    10.038968    687.08762
  390100    358.98053      0.19505   0.22894221   0.96716966   -102.55908    2.5521032    8.3658601    10.039388    692.48203
  390200    320.69071       0.1951   0.71807276  -0.01935231   -102.57123     2.279889    8.3795419    10.039808    693.64356
  390300    314.90382      0.19515  -0.92014139   0.23825301   -102.94025    2.2387483    8.2737228    10.040228     684.9127
  390400    314.92255       0.1952   0.34369444  -0.56999436   -103.01723    2.2388814    8.4354052    10.040648    698.32625
  390500    308.81513      0.19525  -0.31942967  -0.69973434   -102.99445    2.1954618    8.4686335    10.041068    701.10639
  390600     320.5247       0.1953    1.3507627   0.43495478   -102.84354    2.2787088    8.3919305    10.041489    694.78532
  390700    317.99874      0.19535  -0.85311134     1.472894   -102.34535     2.260751     8.271067    10.041909    684.80743
  390800     345.1062       0.1954  -0.02494551    1.5271556   -102.67802    2.4534662     8.255666    10.042329    683.56089
  390900    256.30475      0.19545  -0.50398543   0.88416314   -102.74804    1.8221494    8.3674681    10.042749    692.84697
  391000    309.20287       0.1955    1.3552234   0.47256389   -103.08938    2.1982185    8.3287054    10.043169    689.66617
  391100    257.90573      0.19555   -1.1321541   0.49265065   -102.73011    1.8335313    8.2489966    10.043589    683.09438
  391200    288.88223       0.1956  -0.22882018  -0.99268772   -102.74627    2.0537528    8.3458086    10.044009    691.14023
  391300    345.07189      0.19565   0.24971444  -0.89205701   -102.70829    2.4532224    8.4729363    10.044429    701.69738
  391400    282.19682       0.1957    1.4096412   0.56130519   -102.51973    2.0062241    8.3503729    10.044849    691.57604
  391500    251.89808      0.19575  -0.88303561    1.3700879   -102.81662     1.790821    8.1347719    10.045269    673.74819
  391600    245.37587       0.1958   -1.0580963    1.3045627   -103.00325    1.7444526    8.2806425    10.045689    685.85835
  391700    273.36261      0.19585   0.84593243    1.3440663   -102.93958     1.943419    8.4130935    10.046109    696.85797
  391800    285.70103       0.1959  -0.19337614   -1.1167914    -102.7536    2.0311366    8.2985236    10.046529    687.39686
  391900    289.54384      0.19595   0.30778848  -0.88251283    -102.6909    2.0584564    8.3924812    10.046949    695.20878
  392000    297.12298        0.196  -0.26850575   0.58062776   -102.76939    2.1123388    8.2880399    10.047369    686.58587
  392100    310.30597      0.19605   0.10625401 0.0043503717   -102.99064    2.2060607    8.3406043    10.047789    690.96922
  392200    250.66915       0.1961    0.1230221   0.87639545   -103.07619    1.7820842      8.34037    10.048209    690.97869
  392300    248.99611      0.19615   0.22985481   0.98681283   -103.27595      1.77019    8.2811887     10.04863    686.10436
  392400    318.78623       0.1962 -0.041987855    1.3316255   -103.36108    2.2663495    8.2111508     10.04905    680.33008
  392500    323.26655      0.19625  -0.76275234  0.090828673    -103.0989    2.2982015    8.2585209     10.04947    684.28351
  392600    312.09802       0.1963   0.56622233   0.34734315   -102.84145     2.218801    8.3340143     10.04989     690.5676
  392700    300.91823      0.19635  0.090151546  -0.15855317   -102.74107    2.1393204    8.3104243     10.05031    688.64168
  392800    274.42436       0.1964   -0.0570746  -0.41745813   -102.61674    1.9509673    8.2315642     10.05073    682.13546
  392900    288.14607      0.19645  -0.15624265    1.7161206   -103.03369    2.0485192    8.2388407     10.05115    682.76699
  393000    265.90947       0.1965  -0.66500871    1.9527614   -103.19354    1.8904323    8.3238935     10.05157    689.84429
  393100    291.84252      0.19655    1.0047884  -0.46503003   -103.14385    2.0747983    8.3795343     10.05199    694.48456
  393200     338.2985       0.1966  -0.23866239  -0.55634495    -102.9552    2.4050682      8.34542     10.05241    691.68611
  393300    315.17865      0.19665  -0.11865993   0.40548684   -102.72361    2.2407021    8.2655515     10.05283    685.09506
  393400    285.67176       0.1967 -0.068603625   0.76128622   -102.71582    2.0309285    8.3620658     10.05325    693.12367
  393500    250.54935      0.19675   0.17421967     1.230545   -102.77428    1.7812325    8.3553901     10.05367    692.59926
  393600    292.58359       0.1968   0.38317682   0.18026501   -102.97713    2.0800668     8.332899     10.05409    690.76378
  393700    311.69367      0.19685  -0.34628345   0.05039875   -102.38961    2.2159263    8.2642197     10.05451    685.09917
  393800    340.43224       0.1969  -0.50004255  -0.66443663   -102.54844    2.4202376    8.3083675     10.05493    688.78777
  393900    272.73191      0.19695   0.31294294  0.060983435   -102.57318    1.9389351    8.4305644     10.05535    698.94744
  394000    299.81322        0.197   0.43619333 -0.045505965   -102.78902    2.1314645    8.3531256    10.055771    692.55621
  394100    290.65819      0.19705   0.11301814    1.4049891   -102.74161    2.0663786     8.302576    10.056191     688.3939
  394200    307.76024       0.1971  -0.66519605  -0.41182282   -102.84043    2.1879623    8.2926752    10.056611    687.60171
  394300    379.47105      0.19715   0.17686078  -0.10004612   -103.11918    2.6977766    8.3752853    10.057031    694.48048
  394400    255.64455       0.1972   0.59849194   0.24530102   -102.59045    1.8174558     8.339864    10.057451    691.57223
  394500     304.9305      0.19725  -0.45817084   0.67628694   -103.10136    2.1678449    8.2218841    10.057871    681.81737
  394600    287.72571       0.1973   -0.7538297  -0.75960702   -103.22886    2.0455307    8.3497111    10.058291    692.44662
  394700    296.13554      0.19735    1.4816436   0.51315281   -103.11575    2.1053188    8.2990177    10.058711    688.27132
  394800    322.84148       0.1974  -0.94630595  0.037157537   -102.79307    2.2951795    8.2594207    10.059131    685.01599
  394900    303.35208      0.19745  -0.12221136   0.53524712   -102.61233    2.1566234    8.2612501    10.059551    685.19633
  395000    299.97128       0.1975   0.58009386    1.1731837   -102.38391    2.1325882    8.2562604    10.059971    684.81108
  395100     351.0717      0.19755  -0.75216543   0.37205665   -102.56762    2.4958769    8.2613046    10.060391    685.25807
  395200    261.71322       0.1976   0.26206521  -0.42307602     -102.559    1.8605999    8.3663935    10.060811    694.00395
  395300    331.71943      0.19765   0.76374966  -0.23127495   -103.14993    2.3582956    8.3682057    10.061231    694.18326
  395400    323.24398       0.1977  -0.30768039   0.53764923   -103.24276     2.298041    8.2210807    10.061651    682.00701
  395500    268.77529      0.19775  -0.78174875   0.59630914   -103.10414    1.9108063    8.2582381    10.062071    685.11812
  395600    279.42426       0.1978   0.32011658   0.21480463     -103.243    1.9865131    8.3972714    10.062491    696.68165
  395700      299.764      0.19785    1.4264947    0.8226727   -102.98184    2.1311146    8.2759401    10.062911    686.64404
  395800    278.37099       0.1979   -1.7712522  -0.13089141   -102.56666    1.9790251    8.1971954    10.063332    680.13908
  395900    318.08272      0.19795   0.11371456   0.79659913   -102.73201     2.261348     8.292533    10.063752    688.07817
  396000    328.16262        0.198   0.46061314   0.32089705   -102.62907    2.3330092    8.3636013    10.064172    694.00407
  396100    276.55195      0.19805   0.33042057  -0.39783337   -102.72263     1.966093    8.3066677    10.064592    689.30854
  396200    296.51958       0.1981 -0.054957442   0.49827245   -103.20575     2.108049    8.2466422    10.065012    684.35603
  396300    265.16066      0.19815  -0.73591119  -0.13683177   -102.95022    1.8851088    8.2633064    10.065432    685.76755
  396400     294.8274       0.1982    0.7088716   0.47562107   -102.89258    2.0960188    8.3651664    10.065852    694.24982
  396500    252.74144      0.19825   -0.4243064   0.79515068   -102.55418    1.7968167    8.2737612    10.066272     686.6925
  396600    283.63871       0.1983    0.1109157   0.18289659   -102.74196    2.0164749    8.3438969    10.066692    692.54241
  396700    312.35956      0.19835   0.51587181   0.67896964   -102.84051    2.2206603     8.315077    10.067112    690.17915
  396800    346.28831       0.1984  -0.86830937  -0.25963483   -102.61938    2.4618703    8.3106212    10.067532     689.8381
  396900    300.68665      0.19845    0.5187671     1.121129   -102.20223     2.137674    8.3085602    10.067952    689.69579
  397000    299.26537       0.1985  0.080115062    1.1356369   -102.64658    2.1275697    8.3428907    10.068372    692.57447
  397100    310.63504      0.19855   0.31986398    1.4263082   -103.07878    2.2084002    8.2170137    10.068792    682.15341
  397200    282.28312       0.1986   -1.2455352  -0.96402925   -103.04739    2.0068376    8.3308314    10.069212    691.63109
  397300    281.65181      0.19865   0.74422974  0.012898014   -103.05523    2.0023495    8.3949268    10.069632     696.9814
  397400    281.83399       0.1987   0.89178519    1.1996616   -102.72901    2.0036446    8.3207143    10.070052    690.84879
  397500    363.87962      0.19875   -1.7044346  -0.24952512   -102.73443    2.5869323    8.2256314    10.070473    682.98278
  397600    344.52867       0.1988    1.1050083   0.80060823   -102.66602    2.4493604    8.3036748    10.070893    689.49157
  397700    305.51501      0.19885  -0.35753191  -0.48810694   -102.90001    2.1720003    8.3153673    10.071313    690.49125
  397800    266.85616       0.1989 -0.044701134   0.11019654    -102.9259    1.8971626    8.2871199    10.071733    688.17434
  397900    294.38231      0.19895   0.39718985   0.93081262   -103.04777    2.0928545    8.3290579    10.072153    691.68577
  398000    287.39703        0.199  -0.43877508   0.15669975   -102.78566     2.043194    8.2863279    10.072573    688.16597
  398100    361.58667      0.19905   0.47988071 -0.0054635501   -102.63515     2.570631    8.2472471    10.072993    684.94894
  398200    311.46087       0.1991  -0.68465496   0.73224981   -102.30543    2.2142713    8.3253118    10.073413    691.46118
  398300      274.973      0.19915   0.40671997  -0.25929328   -102.41494    1.9548677    8.3434195    10.073833    692.99402
  398400    303.09856       0.1992    0.5640353    0.7279905   -102.80231     2.154821    8.3116033    10.074253     690.3802
  398500    301.83248      0.19925  -0.82915535  -0.94927733   -102.95855    2.1458201    8.2120786    10.074673     682.1419
  398600    262.72659       0.1993  0.027859765   0.74518698   -102.90317    1.8678042    8.3798489    10.075093    696.10687
  398700    245.96092      0.19935   0.73332944   0.57579152   -102.68993    1.7486119    8.2970172    10.075513    689.25485
  398800    364.00524       0.1994  -0.82659151  -0.12597776     -102.783    2.5878253    8.3278479    10.075933    691.84488
  398900     266.7178      0.19945   0.40593928   0.22277181    -102.2954     1.896179    8.4042522    10.076353    698.22135
  399000    312.02348       0.1995   0.76338206    1.9564474   -102.65763     2.218271    8.2852971    10.076773    688.36731
  399100    278.18373      0.19955   -1.8118214   -1.4107627   -102.50835    1.9776938    8.2507696    10.077193    685.52724
  399200    260.05603       0.1996    1.0997581   -0.4701165   -102.92173    1.8488184    8.4343532    10.077614    700.80976
  399300    321.45682      0.19965   0.53403926    1.3168456   -103.52344    2.2853356    8.3190138    10.078034    691.25503
  399400    268.02131       0.1997  -0.79778295  -0.14890697   -102.97527     1.905446    8.1569847    10.078454    677.81974
  399500    292.01917      0.19975  -0.52242416   0.76458025   -102.64674    2.0760542    8.3720902    10.078874    695.72332
  399600    353.49004       0.1998    1.1295868   0.14184245   -102.98069    2.5130695    8.3905552    10.079294    697.28683
  399700    284.10584      0.19985  -0.13750076   -1.2252517   -102.70125    2.0197959    8.2894128    10.079714    688.91022
  399800    280.44918       0.1999  -0.70074426   0.11964825   -102.76215    1.9937996    8.2865874    10.080134    688.70411
  399900    333.88974      0.19995   0.39421223     1.985108   -102.92172     2.373725    8.3679915    10.080554    695.49865
  400000    392.04514          0.2  0.012594205   -0.5064266   -102.85818    2.7871697    8.2963454    10.080974    689.57258
  400100    314.02316      0.20005  -0.29613063  -0.49304941    -102.5175    2.2324873    8.3602141    10.081394    694.91014
  400200    285.38651       0.2001   0.59702843    1.3071083   -102.80775    2.0289006    8.3206059    10.081814    691.64668
  400300    263.95835      0.20015   -0.5827167    1.1142583   -102.95494    1.8765612    8.3111608    10.082234    690.89035
  400400    286.63402       0.2002   0.63856984   0.41280725   -102.98731    2.0377695    8.3791297    10.082654    696.56949
  400500    286.74312      0.20025  -0.59428113   0.47287542   -102.74416    2.0385451    8.3534809    10.083074     694.4662
  400600    346.96894       0.2003   0.40675055  -0.80191096   -102.89288     2.466709    8.3730192    10.083494    696.11951
  400700    308.34173      0.20035  -0.47400969  -0.61116598    -102.7366    2.1920963    8.4117613    10.083914     699.3696
  400800    265.36044       0.2004   0.83246499   0.26111342     -102.631    1.8865291    8.3520169    10.084334    694.43126
  400900    285.75432      0.20045  -0.18009815  -0.15463602   -102.78517    2.0315154    8.2774773    10.084755    688.26232
  401000    309.93746       0.2005   -0.4973461    1.7316382   -102.96041    2.2034408    8.1841905    10.085175    680.53397
  401100    340.23499      0.20055  -0.80636046 -0.093485656   -103.03848    2.4188353    8.4167653    10.085595    699.90224
  401200    296.94517       0.2006    1.5337394     1.574549   -102.65842    2.1110746    8.4506132    10.086015    702.74616
  401300    284.80614      0.20065  -0.44876926  -0.65439638   -102.77741    2.0247746    8.3176132    10.086435    691.71479
  401400    272.42333       0.2007  -0.25116968   0.18318931   -102.93158    1.9367413    8.3510711    10.086855    694.52616
  401500    275.52619      0.20075  -0.19944679  -0.95360663   -102.94298    1.9588006    8.4356316    10.087275    701.58795
  401600    288.22758       0.2008    1.0430324  -0.42560545   -102.68036    2.0490987     8.356064    10.087695    694.99928
  401700    330.68755      0.20085  -0.64745514   0.38539373   -102.52889    2.3509596    8.2696797    10.088115    687.84308
  401800    284.30876       0.2009  -0.46987751     1.718913   -102.31944    2.0212385    8.3010056    10.088535    690.47741
  401900    279.28385      0.20095   0.99690334    2.1925005   -102.72809    1.9855149    8.3051851    10.088955    690.85382
  402000    275.98566        0.201   -1.0177796   0.89464408   -103.29289     1.962067     8.304473    10.089375    690.82335
  402100     276.4395      0.20105   0.19519197   -1.0123121   -103.24609    1.9652936      8.35576    10.089795    695.11869
  402200    244.91923       0.2011   0.50789257   0.20643866   -102.63993    1.7412062     8.445385    10.090215    702.60388
  402300    331.34803      0.20115   0.18176971   -0.5052156   -102.84133    2.3556552    8.2954766    10.090635    690.16116
  402400    324.80586       0.2012  -0.53142327   0.59365868   -102.91935    2.3091449    8.3084153    10.091055     691.2664
  402500    318.90659      0.20125  -0.18070362  -0.25424021    -103.1384    2.2672052    8.4008509    10.091475     698.9862
  402600    290.75547       0.2013   0.68822289    1.2980073   -103.08662    2.0670702    8.3433596    10.091896    694.23158
  402700    299.45465      0.20135   0.14494917    0.5900259    -103.1591    2.1289153    8.2896972    10.092316    689.79517
  402800    307.71646       0.2014   -1.1506013   0.65182834   -102.76201    2.1876511    8.2583518    10.092736    687.21548
  402900    324.85099      0.20145   0.42582123   0.40975139   -102.54804    2.3094657     8.368012    10.093156     696.3698
  403000    297.58459       0.2015 -0.016139537  -0.87212223   -102.60755    2.1156205    8.4318211    10.093576    701.70907
  403100     265.3664      0.20155   0.91357728   -0.1138201   -102.79705    1.8865715    8.3361205    10.093996    693.77359
  403200    308.82798       0.2016  -0.81631114   0.56144887   -103.05796    2.1955532    8.2908302    10.094416    690.03302
  403300    276.47028      0.20165 -0.078882395   0.29955965   -102.83902    1.9655123    8.3625392    10.094836    696.03022
  403400    315.00581       0.2017    0.7686791    1.4678508   -103.05505    2.2394733    8.2955119    10.095256    690.48013
  403500    284.44142      0.20175  -0.57983574   0.91981139   -102.85978    2.0221816    8.2258121    10.095676    684.70713
  403600    315.35601       0.2018  -0.57970592  -0.12848194    -102.9736     2.241963    8.2840292    10.096096    689.58174
  403700    319.83991      0.20185   0.63106202    1.1227781   -102.88613    2.2738405    8.3676977    10.096516    696.57549
  403800    295.60369       0.2019   0.06034132   0.10196959   -102.73273    2.1015376    8.3408184    10.096936    694.36678
  403900    334.93119      0.20195  -0.21899498  -0.91763995   -103.14246     2.381129    8.3355619    10.097356    693.95805
  404000    263.36658        0.202   0.50741874  -0.20698718   -102.90843    1.8723541    8.3802511    10.097776    697.70758
  404100    242.18405      0.20205  -0.31719785   0.65678779   -102.70256     1.721761    8.2826744    10.098196     689.6124
  404200    312.82811       0.2021  -0.13549394    1.0686473   -102.43572    2.2239914    8.2964901    10.098616    690.79142
  404300     329.6229      0.20215  -0.30119091  0.099710302   -102.35324    2.3433907    8.3392417    10.099036    694.37993
  404400    315.00418       0.2022    1.2926087     1.748533   -102.73374    2.2394617    8.2536194    10.099457    687.27905
  404500    304.52652      0.20225   -1.6357124   0.22724097   -103.04813    2.1649728    8.2705799    10.099877    688.71999
  404600    248.62897       0.2023   0.88291195    0.2378861   -102.90902    1.7675799    8.3302344    10.100297    693.71648
  404700     262.6497      0.20235   0.30858128   0.25536054    -102.9677    1.8672576    8.2552775    10.100717    687.50289
  404800    344.15255       0.2024  -0.84494612  -0.74336481   -102.97224    2.4466865     8.200996    10.101137    683.01071
  404900    281.81397      0.20245  -0.18395677     0.563804   -102.44955    2.0035023    8.3354066    10.101557    694.23381
  405000    357.85528       0.2025   0.94615816   0.65856038   -102.82555    2.5441034    8.3461543    10.101977    695.15786
  405100    306.80686      0.20255  -0.38825023  0.013905965    -102.8618    2.1811845    8.3268848    10.102397    693.58173
  405200    271.59468       0.2026  0.014840235   0.84803057   -102.92944    1.9308502    8.3015715    10.102817    691.50203
  405300    270.97043      0.20265  0.030898588    1.1565601   -102.84794    1.9264122    8.2808415    10.103237    689.80395
  405400    316.58171       0.2027  -0.26634035   0.13703203   -102.93161    2.2506769    8.3543783    10.103657    695.95858
  405500    297.41468      0.20275   0.36699619  -0.10497765   -102.73555    2.1144126    8.3322761    10.104077    694.14623
  405600    293.14797       0.2028    0.2088679   0.84361158   -102.77954    2.0840792    8.2960245    10.104497    691.15491
  405700     427.4576      0.20285  -0.48816982  -0.19958153   -103.12832    3.0389277    8.2584014    10.104917    688.04907
  405800    345.44946       0.2029    0.1974252   0.67688733   -102.46782    2.4559066    8.3798894    10.105337    698.19987
  405900    277.72536      0.20295  0.044971485    1.2255147   -102.37386    1.9744351     8.320148    10.105757    693.25112
  406000    329.36609        0.203   0.44644234    1.1314241   -103.08595     2.341565    8.2182648    10.106177    684.79048
  406100    313.93473      0.20305   -1.6168126   -0.1013873   -103.23295    2.2318587    8.3458864    10.106598    695.45351
  406200    232.66462       0.2031    1.4318051  -0.95503581   -102.62614    1.6540845    8.4369435    10.107018    703.07041
  406300    300.50454      0.20315   0.38983194   -0.8086204   -102.85891    2.1363793    8.3066584    10.107438    692.24222
  406400    304.47274       0.2032   -1.4293174  -0.66013342   -102.77393    2.1645905    8.2850043    10.107858    690.46635
  406500    310.87915      0.20325     1.182944     1.992388   -102.89316    2.2101357    8.3330749    10.108278    694.50138
  406600    270.43579       0.2033  -0.53937784   0.40232791   -102.97481    1.9226113    8.3302397    10.108698    694.29394
  406700     231.7315      0.20335   0.14766813   0.44520314   -102.99959    1.6474506    8.2650099    10.109118    688.88591
  406800    272.72937       0.2034  -0.25571809  -0.14079214   -103.03293    1.9389171    8.3843892    10.109538    698.86517
  406900    353.43574      0.20345   0.33755462   0.68516433   -103.01773    2.5126835    8.3404265    10.109958    695.22963
  407000    282.78726       0.2035   0.15168185   0.13392411   -102.42256    2.0104217    8.3136371    10.110378    693.02535
  407100    356.31182      0.20355   -0.9106228  -0.27428271   -102.85487    2.5331304    8.3645092    10.110798    697.29502
  407200      304.437       0.2036    1.3047404   -0.2185052   -103.01175    2.1643364    8.3784698    10.111218    698.48784
  407300    265.84279      0.20365 -0.00059452548    1.2498648   -102.90385    1.8899583    8.2157249    10.111638    684.94874
  407400    265.20906       0.2037   -1.6138371  -0.30995117   -102.70583    1.8854529    8.2410657    10.112058    687.08996
  407500    316.70545      0.20375    0.4933273    1.0253182   -102.80272    2.2515566    8.4661917    10.112478    705.88892
  407600    304.85986       0.2038    1.1457588   0.23188336   -102.70648    2.1673426    8.4075848    10.112898    701.03154
  407700    295.51446      0.20385  -0.55352023  -0.71243223   -102.69706    2.1009033    8.2166598    10.113318    685.14052
  407800    293.61236       0.2039  -0.59669705  -0.26396977   -102.73064    2.0873807    8.3054815    10.113739    692.57562
  407900    316.18958      0.20395   0.24671138    1.2656227   -102.91694    2.2478891    8.3581837    10.114159    696.99928
  408000    320.72997        0.204   0.90657646    0.4031623   -103.02324    2.2801681    8.2704382    10.114579    689.71072
  408100    315.67176      0.20405   -1.5751331  -0.97758515   -103.04575    2.2442077    8.3062392    10.114999     692.7251
  408200    268.61848       0.2041    1.4530627   0.66543377   -103.01783    1.9096915    8.3468289    10.115419    696.13912
  408300    243.37683      0.20415  -0.22762131    1.9685527    -102.7874    1.7302408    8.2084122    10.115839    684.62337
  408400    250.89231       0.2042   -0.6693441  -0.49662243   -102.37398    1.7836707    8.2207751    10.116259    685.68297
  408500    324.30637      0.20425   0.24961411   0.14980713   -102.57586    2.3055938    8.3256102    10.116679    694.45595
  408600    290.04862       0.2043     0.157377  -0.23538366   -102.47628     2.062045    8.3097296    10.117099    693.16009
  408700    296.31818      0.20435  -0.23147468   0.40819371   -102.86675    2.1066172    8.2873233    10.117519    691.31977
  408800     319.9895       0.2044   0.12476659 -0.014001053   -103.20428    2.2749039    8.3884458    10.117939    699.78434
  408900    270.39795      0.20445   0.15595014    1.2316448   -102.88538    1.9223423    8.3230999    10.118359    694.36186
  409000    344.74095       0.2045 -0.014595481   0.37017842   -103.16754    2.4508696    8.2848704    10.118779    691.20122
  409100    280.50617      0.20455  -0.19364073   0.86392366   -102.50194    1.9942047    8.3412124    10.119199    695.93069
  409200    330.47804       0.2046  0.033028938   0.40126299   -102.65023    2.3494702    8.2976137    10.119619    692.32187
  409300    248.94116      0.20465   0.42102927   0.48775042   -102.45737    1.7697994    8.2955544    10.120039    692.17877
  409400    221.89773       0.2047   -0.3005881   0.64194247   -102.82191    1.5775393    8.2331944    10.120459    687.00399
  409500    294.63266      0.20475  0.072050792   0.85306204   -103.12188    2.0946343    8.2712056     10.12088    690.20441
  409600    296.70338       0.2048  -0.40990685    0.1072415   -102.76367    2.1093557    8.3116156      10.1213    693.60527
  409700    361.28667      0.20485   0.42788745   0.50089681   -102.93467    2.5684982    8.3515635     10.12172    696.96786
  409800    316.57455       0.2049  -0.16520411   0.93159134   -102.87151     2.250626    8.3562688     10.12214    697.38947
  409900    285.84928      0.20495    0.0500977  -0.85434455   -102.83824    2.0321906     8.271712     10.12256    690.36126
  410000    335.20193        0.205  -0.15573971  -0.67317777    -103.1815    2.3830538    8.3502022     10.12298    696.94102
  410100    319.00607      0.20505   0.65858425    1.2479952   -103.04465    2.2679124    8.2735389      10.1234    690.57105
  410200    285.24717       0.2051  -0.94451168   0.22394011   -102.85887      2.02791    8.2215546     10.12382    686.26052
  410300    299.74258      0.20515   0.12359965   0.83143338   -102.76047    2.1309623    8.3701797     10.12424    698.69538
  410400     371.8263       0.2052   0.57681805  -0.17501785   -102.61315    2.6434277    8.3568642     10.12466    697.61282
  410500     395.8184      0.20525  -0.43359307  -0.90328569   -103.05575    2.8139949    8.3474812     10.12508    696.85846
  410600    304.31569       0.2053   0.64507522    1.1250757   -102.86846     2.163474    8.3597409      10.1255    697.91087
  410700    306.80165      0.20535  -0.58932885   0.52274355   -102.99795    2.1811474    8.2857718     10.12592    691.76428
  410800    290.85201       0.2054  -0.14275775   0.30499909   -102.83372    2.0677565    8.4456474     10.12634    705.14126
  410900    280.09611      0.20545    1.0680451  -0.20867957   -102.43032    1.9912895    8.3442684     10.12676    696.70585
  411000     340.9644       0.2055  -0.53076666    0.3391366   -102.30076    2.4240209    8.2288199     10.12718    687.09496
  411100    342.96578      0.20555   -1.3011926   0.74441601    -102.8108    2.4382494    8.3657507      10.1276    698.55746
  411200    298.96986       0.2056    1.8369691   0.64644629    -102.7588    2.1254688    8.3944573    10.128021     700.9836
  411300    314.33345      0.20565  -0.38237414    1.0796039   -102.87608    2.2346933    8.2695482    10.128441    690.58164
  411400    312.58435       0.2057  -0.34600779  -0.68276198   -102.90268    2.2222584    8.1498896    10.128861    680.61729
  411500    246.04083      0.20575  -0.92840865   -0.6027839   -102.85294    1.7491801    8.3548757    10.129281    697.76512
  411600    280.67612       0.2058    1.5340277    1.4979748   -103.16663     1.995413    8.3512216    10.129701    697.48887
  411700    322.77608      0.20585    -0.827564   0.38288986   -102.96171    2.2947146    8.2649846    10.130121    690.31503
  411800    318.66851       0.2059  -0.46608745 -0.027442557   -102.67938    2.2655126     8.381318    10.130541    700.06056
  411900    313.39205      0.20595    1.6708819   0.37214023   -102.78279    2.2280006    8.3230006    10.130961    695.21834
  412000    327.15188        0.206   -1.3858442    1.0840107   -102.99774    2.3258235      8.26299    10.131381    690.23429
  412100    317.79128      0.20605  -0.12686805   0.20499927   -103.03613    2.2592761    8.3509983    10.131801    697.61484
  412200    297.26902       0.2061   0.50268044  -0.12085221   -102.80986     2.113377    8.4441188    10.132221    705.42306
  412300    279.97185      0.20615   0.39083009  -0.33108985    -102.5948    1.9904061    8.3405446    10.132641    696.79934
  412400     267.9563       0.2062  -0.33969581  -0.26980101   -102.62217    1.9049839     8.299098    10.133061    693.36549
  412500    227.01771      0.20625   -0.2004291    0.9930584   -102.92599    1.6139388    8.3013147    10.133481    693.57944
  412600    247.68262       0.2063    0.3899378   0.20086907   -103.15065     1.760852    8.3276444    10.133901    695.80814
  412700    277.77928      0.20635   -0.1151517   0.57164364    -103.0026    1.9748185    8.2747899    10.134321    691.42059
  412800    312.40469       0.2064  0.058161185   0.79606214   -103.03567    2.2209812    8.2617228    10.134741    690.35735
  412900    273.12207      0.20645  -0.71568229    1.0365518   -102.63386    1.9417089     8.293217    10.135161    693.01775
  413000    328.93477       0.2065   0.44554776  -0.58935782   -102.58153    2.3384986     8.369785    10.135582    699.44511
  413100    371.34591      0.20655 -0.052611577    -1.821143   -102.48155    2.6400124    8.3727293    10.136002    699.72015
  413200    354.91569       0.2066   0.48014705   0.68626346   -102.65331     2.523205    8.3565336    10.136422     698.3956
  413300    303.68084      0.20665  -0.25699678    0.1324159   -102.57391    2.1589606    8.3154314    10.136842    694.98928
  413400    291.61304       0.2067  -0.25326529   0.80597353   -102.84361    2.0731669    8.3182533    10.137262    695.25394
  413500    277.82484      0.20675   0.66553462    1.8492549   -102.91427    1.9751423    8.2915701    10.137682    693.05243
  413600    296.07514       0.2068  -0.93242358    0.6536483   -102.95286    2.1048894    8.2446002    10.138102      689.155
  413700    325.92543      0.20685   0.40028798   0.46592651   -102.76788    2.3171043    8.3423207    10.138522    697.35222
  413800    352.53466       0.2069  -0.31796821  -0.16533617   -102.53613    2.5062775    8.3753196    10.138942    700.13968
  413900    353.57973      0.20695   0.34945436  -0.33676392   -102.82545    2.5137072    8.4311963    10.139362    704.83992
  414000    287.22671        0.207   0.54219062   -1.0215376   -102.82097    2.0419831    8.4253987    10.139782    704.38443
  414100    271.42938      0.20705  -0.29556368   0.47419988   -102.76032     1.929675    8.2652934    10.140202    691.02785
  414200    296.32102       0.2071 -0.041093962    1.1234127   -102.82903    2.1066374    8.2606183    10.140622    690.66559
  414300    315.56319      0.20715  -0.82888645   0.75145561   -102.66205    2.2434359    8.2849514    10.141042    692.72877
  414400     369.9495       0.2072   0.55617392   0.38391745   -102.60949     2.630085    8.4115485    10.141462    703.34304
  414500    298.10738      0.20725    1.2730353   0.44484654   -102.34169    2.1193372    8.2954398    10.141882    693.66319
  414600    270.96544       0.2073   -1.8506468   -0.3249027   -102.70948    1.9263768    8.1380064    10.142302    680.52682
  414700     291.2246      0.20735 -0.010661955  -0.42296998   -102.92164    2.0704054    8.3771369    10.142723    700.55271
  414800      296.498       0.2074   0.64858687  -0.24194479   -102.84824    2.1078956    8.4474681    10.143143    706.46354
  414900    333.71038      0.20745    1.1744707   0.16255047   -103.09688    2.3724499    8.2505863    10.143563    690.02684
  415000    258.19272       0.2075   -1.6677619    1.2533321   -102.43892    1.8355716    8.2569762    10.143983    690.58985
  415100    370.13742      0.20755  -0.18541906     1.341699   -102.87676    2.6314209     8.327088    10.144403    696.48265
  415200    297.14509       0.2076    1.6363774   0.23788677   -102.61396    2.1124959    8.4425194    10.144823    706.16664
  415300     326.5918      0.20765   -1.4511407   -1.7136304   -103.11229    2.3218417    8.2053314    10.145243    686.35568
  415400    277.74177       0.2077   0.21393385   0.17271363   -103.15322    1.9745518    8.3761492    10.145663    700.67318
  415500    294.25579      0.20775   0.63857567    1.2977454   -103.25537     2.091955    8.3309363    10.146083    696.91993
  415600    320.42835       0.2078   0.29238587   0.20169429   -102.64764    2.2780239    8.1852777    10.146503    684.76329
  415700    295.93849      0.20785   -1.4424559 -0.022793053   -102.29637    2.1039179    8.1991812    10.146923    685.95483
  415800    281.85428       0.2079   0.73884457    1.0233567   -102.22211    2.0037889    8.3378049    10.147343    697.58115
  415900    317.54049      0.20795   0.44381641   0.87009114   -102.63312    2.2574931    8.2476194    10.147763    690.06436
  416000    273.13252        0.208   -0.5391298  -0.43454669     -102.805    1.9417832    8.1940119    10.148183    685.60749
  416100    272.24913      0.20805  -0.41938937   0.46127374   -102.95046    1.9355029    8.3635898    10.148603    699.82534
  416200    249.53844       0.2081   0.89957761 -0.046545073   -102.54191    1.7740456    8.3383926    10.149023    697.74583
  416300    355.07204      0.20815   0.26458277   0.49317291   -102.74805    2.5243165     8.279028    10.149443    692.80696
  416400    298.40729       0.2082   -1.3624604   0.10789205   -102.51176    2.1214693    8.2024502    10.149864    686.42717
  416500    280.34851      0.20825   0.52738702    1.1356175   -102.61323    1.9930839    8.4440043    10.150284    706.67102
  416600     297.0213       0.2083   0.53104625    1.4562118   -102.87512    2.1116159    8.3801318    10.150704    701.35461
  416700    281.87835      0.20835  -0.17718423 -0.011033704   -103.07235      2.00396     8.340129    10.151124    698.03556
  416800    223.79743       0.2084  -0.21803003  -0.81623141   -102.88175    1.5910448     8.351325    10.151544    699.00154
  416900    315.97463      0.20845   0.32761092  -0.42292801    -103.0303    2.2463609    8.3038304    10.151964    695.05503
  417000    336.07662       0.2085   0.22618739   0.87084166   -102.89668    2.3892722    8.2778303    10.152384    692.90742
  417100    249.11869      0.20855  -0.80329566    2.0867111   -102.38272    1.7710615    8.2013243    10.152804    686.53177
  417200    313.72966       0.2086   0.66007213    1.3095324   -102.56824    2.2304008    8.2801792    10.153224    693.16138
  417300    412.60698      0.20865  -0.99609903    1.6818525   -102.98445    2.9333501    8.2758633    10.153644    692.82875
  417400    273.77991       0.2087   0.55287544   -1.0990623    -102.4592    1.9463857    8.3712012    10.154064    700.83913
  417500    292.00753      0.20875   -0.2799415  -0.82644609   -102.69217    2.0759715    8.4620135    10.154484    708.47127
  417600    249.91633       0.2088    1.2895305   -0.6334217   -102.66582    1.7767322    8.3208573    10.154904    696.68196
  417700    269.15086      0.20885   -1.1764211 -0.048237081   -102.87879    1.9134764    8.3305874    10.155324    697.52549
  417800     289.2618       0.2089   0.50015028    1.3035039   -102.77419    2.0564512    8.3105941    10.155744    695.88022
  417900    343.78698      0.20895   0.48214874    2.6391601   -102.64866    2.4440875    8.2224398    10.156164    688.52717
  418000    352.21619        0.209   -1.5339827   0.18576822   -102.66751    2.5040133    8.2775446    10.156584    693.17018
  418100    309.34719      0.20905   0.74953681  -0.17176831   -102.76963    2.1992444    8.4167552    10.157005    704.85697
  418200    290.57316       0.2091   0.58264068   0.20367439   -102.94896     2.065774    8.3495548    10.157425    699.25823
  418300    300.66545      0.20915 -0.075845821  -0.31392242   -102.98297    2.1375233    8.2281712    10.157845     689.1211
  418400    316.32119       0.2092   -1.2450778  -0.31327777   -103.02755    2.2488248     8.317563    10.158265    696.63659
  418500     306.3822      0.20925    1.3174169   0.39212104   -102.76831    2.1781654    8.3879054    10.158685    702.55716
  418600    372.72976       0.2093  -0.72351776    0.1263733   -102.71646    2.6498506    8.3419069    10.159105     698.7333
  418700    382.03027      0.20935   0.19813807     0.638949   -102.75716    2.7159708     8.359173    10.159525    700.20849
  418800    293.74691       0.2094  0.095608448    0.3128111   -102.83688    2.0883372    8.3639383    10.159945    700.63662
  418900    311.22435      0.20945   0.15665201   0.59075249   -103.01277    2.2125898    8.3331205    10.160365    698.08392
  419000     276.2319       0.2095 -0.065236465  -0.71643747   -102.72672    1.9638177    8.3058429    10.160785    695.82757
  419100    250.15145      0.20955  -0.45037743  -0.27960168   -102.24446    1.7784037    8.3277493    10.161205    697.69164
  419200     341.8144       0.2096   0.96972805  0.041156387   -102.51927    2.4300639    8.3811854    10.161625     702.1975
  419300    341.07943      0.20965  -0.53510525   0.75963075    -102.8418    2.4248387    8.1804729    10.162045    685.40962
  419400    304.96103       0.2097   0.10890692   0.75399624   -102.77248    2.1680619    8.2032979    10.162465    687.35045
  419500    264.89763      0.20975   -1.4038333   0.34990222   -102.66488    1.8832388    8.3902099    10.162885    703.04077
  419600    339.29537       0.2098    1.8982306     0.728296   -102.90555    2.4121553    8.3844439    10.163305    702.58666
  419700    335.64989      0.20985   -1.0248844  -0.65904734   -102.76823    2.3862385    8.3439675    10.163725    699.22378
  419800    263.45143       0.2099   0.22702891  0.017521418   -102.75272    1.8729573     8.336773    10.164145    698.64975
  419900    271.21623      0.20995   0.51077109   0.55262895   -103.02678    1.9281597    8.3830205    10.164566    702.55448
  420000    270.19509         0.21  -0.62326057   -1.5795321   -103.01489    1.9209001    8.2768891    10.164986    693.68861
  420100    303.22357      0.21005   0.66550216    1.3666088   -102.79192    2.1557097    8.3535423    10.165406    700.14187
  420200    368.47038       0.2101 -0.093042167    1.3391051   -102.85637    2.6195694    8.2168876    10.165826    688.71678
  420300    287.21193      0.21015  0.097019103    2.4368152   -102.47969     2.041878    8.1741893    10.166246    685.16624
  420400    281.24902       0.2102   -2.0659512  -0.49289666    -102.8067    1.9994859     8.291731    10.166666    695.04739
  420500    288.04336      0.21025    1.9784843  0.069557601   -102.84918     2.047789    8.4620661    10.167086    709.35489
  420600    267.51754       0.2103   0.31121955   -0.5877516   -103.17279    1.9018646    8.3411811    10.167506    699.25028
  420700    216.28678      0.21035   -1.0457816   0.36590886   -102.93688    1.5376493    8.2117116    10.167926    688.42515
  420800    276.65179       0.2104   0.15789516      1.49259   -102.88402    1.9668028    8.3929329    10.168346    703.64682
  420900    286.68041      0.21045 -0.070430731  -0.43041489   -102.72454    2.0380993    8.3989475    10.168766    704.18016
  421000     298.7768       0.2105    1.1025466    1.0255797   -102.80917    2.1240963    8.2915162    10.169186    695.20168
  421100    296.67885      0.21055   -1.0373578   0.60199464   -102.72552    2.1091813    8.2688228    10.169606    693.32759
  421200    292.99377       0.2106   0.23707574   0.88272543   -102.75373    2.0829829    8.2430466    10.170026    691.19485
  421300    282.90673      0.21065  -0.19455594   0.50154569   -102.80827    2.0112711    8.3575624    10.170446    700.82615
  421400    273.87143       0.2107 -0.038790734    0.0413906   -102.95035    1.9470363    8.3390995    10.170866    699.30682
  421500     299.1073      0.21075    0.4595674   0.80742873    -103.1467    2.1264459    8.3338866    10.171286    698.89854
  421600     316.0747       0.2108 -0.037418082   -1.1919833   -102.92226    2.2470724    8.3024454    10.171707    696.29056
  421700    313.37207      0.21085  -0.47540347   0.51495757   -102.43763    2.2278586     8.295308    10.172127    695.72071
  421800    368.90758       0.2109   0.57299615  -0.85698053    -102.7896    2.6226776    8.3510614    10.172547    700.42563
  421900    274.63934      0.21095  -0.36911542    1.0102926   -102.53459    1.9524957     8.305146    10.172967    696.60335
  422000    258.04704        0.211   0.99314315   0.72273559   -102.44944    1.8345358    8.2288662    10.173387    690.23379
  422100    319.25998      0.21105   -1.4459034    1.6568744   -102.72336    2.2697175    8.1975091    10.173807    687.63196
  422200     340.4345       0.2111   0.20939178   0.76476288   -102.92804    2.4202537    8.3295564    10.174227    698.73734
  422300    259.70372      0.21115   0.33608798 -0.018923806     -102.862    1.8463138    8.3530927    10.174647    700.74065
  422400     266.5214       0.2112   0.19546709   -0.3531017   -102.93225    1.8947827    8.2499359    10.175067     692.1154
  422500    292.08612      0.21125  -0.38193756  -0.44423454   -102.88413    2.0765302    8.3101025    10.175487    697.19177
  422600    309.50103       0.2113   -0.3172318   0.44557526   -102.48341    2.2003381    8.3800227    10.175907    703.08687
  422700    331.91632      0.21135    1.0653156   0.14721417   -102.14646    2.3596953    8.4138109    10.176327    705.95085
  422800    332.61244       0.2114   -0.1355476    1.0123858    -102.4803    2.3646443    8.2943496    10.176747    695.95633
  422900    315.86611      0.21145  -0.60597011   0.19895809   -102.70438    2.2455894    8.2198828    10.177167    689.73649
  423000      325.211       0.2115  -0.31709425 -0.015081985   -102.98986    2.3120251    8.3464766    10.177587    700.38797
  423100     291.3149      0.21155   0.72524665    1.0491747   -103.04899    2.0710473    8.4296865    10.178007    707.39966
  423200     258.0911       0.2116   0.48306964 -0.071477823    -102.8446    1.8348491    8.3155217    10.178427    697.84802
  423300    335.21611      0.21165    -1.339067  -0.50004912   -102.69848    2.3831546    8.2480246    10.178848    692.21215
  423400    318.45968       0.2117   0.38532333   0.13281158   -102.54713    2.2640279    8.4242744    10.179268    707.03302
  423500    325.75608      0.21175    1.1092039     1.548045   -102.85263    2.3159003    8.3409579    10.179688    700.06931
  423600    311.35451       0.2118   -1.4095508   -0.6846373   -103.10385    2.2135151    8.2366967    10.180108    691.34704
  423700    272.81751      0.21185   0.40779539 -0.016844368   -102.94221    1.9395437    8.3883485    10.180528    704.10498
  423800    292.83712       0.2119   0.71005833   0.93934271   -102.72355    2.0818693    8.3324514    10.180948    699.44193
  423900    335.03764      0.21195  -0.41017754    1.0134027   -102.44979    2.3818858    8.2133749    10.181368    689.47486
  424000     302.7826        0.212   -1.1909513  -0.32432585   -102.40644    2.1525748    8.3511906    10.181788    701.07277
  424100    320.97028      0.21205   0.82443688   0.74639036    -102.7898    2.2818766    8.4913542    10.182208    712.86876
  424200    268.79472       0.2121    1.3804398   0.49524737   -102.69047    1.9109444    8.3344031    10.182628    699.72121
  424300     294.2895      0.21215   -1.5599546  -0.83360898   -102.78641    2.0921947    8.1724462    10.183048     686.1523
  424400    273.37679       0.2122   0.40247651  -0.53330623   -102.72454    1.9435198    8.3188025    10.183468    698.46908
  424500    297.26679      0.21225    0.3696672    1.3754427   -102.63192    2.1133612    8.2298762    10.183888    691.03109
  424600     308.3516       0.2123   0.16718826    1.4061442   -102.42694    2.1921665    8.1793377    10.184308    686.81589
  424700    310.78286      0.21235  -0.50686642    1.0587092   -102.38874    2.2094511    8.0794166    10.184728    678.45354
  424800    327.61751       0.2124  -0.58327335   0.39385205   -102.69773    2.3291338    8.2374835    10.185148    691.75543
  424900    276.78481      0.21245   0.33396297   0.58113186   -102.80961    1.9677485    8.3583158    10.185568    701.93146
  425000    322.61075       0.2125   0.21540645   0.35751592   -103.23815    2.2935392    8.3974358    10.185989    705.24584
  425100    297.28128      0.21255   0.14676325   -1.8139499   -103.08844    2.1134642    8.3397727    10.186409    700.43198
  425200    341.61598       0.2126  -0.25522795  -0.48509818   -103.05987    2.4286532     8.332934    10.186829    699.88648
  425300    291.04234      0.21265    0.7602358    1.8924399   -102.35585    2.0691096    8.3077155    10.187249    697.79714
  425400    390.18318       0.2127  -0.41888492    1.3359647   -102.80336    2.7739324    8.2034256    10.187669    689.06584
  425500    263.30611      0.21275 -0.057240699     1.281038   -102.40453    1.8719243    8.1626968    10.188089      685.673
  425600    288.08136       0.2128  -0.55571409   0.90148884   -102.68195    2.0480591    8.2178268    10.188509    690.33242
  425700    300.82545      0.21285   0.33407028   0.82433788   -102.80381    2.1386607    8.2771786    10.188929     695.3469
  425800    281.64714       0.2129  -0.52810654   -1.9086744    -102.6909    2.0023163    8.3809454    10.189349    704.09313
  425900    334.91914      0.21295   0.40497938  -0.54389266   -102.80794    2.3810433    8.4818534    10.189769    712.59991
  426000    290.75183        0.213   0.97589739   0.16554978   -102.49013    2.0670443    8.4204737    10.190189    707.47228
  426100     335.1109      0.21305   0.12474769    1.1193221   -102.71469    2.3824066    8.2071177    10.190609    689.57493
  426200    287.39148       0.2131    -1.503507   0.94880089   -102.74296    2.0431545    8.1946826    10.191029     688.5585
  426300    247.71957      0.21315    0.3749704   0.97046976   -102.73826    1.7611147    8.3367362    10.191449    700.52343
  426400    308.51179       0.2132    0.5503524   0.66709274   -102.94048    2.1933053    8.3289893    10.191869    699.90132
  426500    335.41088      0.21325  0.029927649   0.41217114   -102.87061    2.3845392    8.2155517    10.192289    690.39739
  426600    306.67675       0.2133   -1.0807089  -0.48488796   -102.84553    2.1802594    8.3052847    10.192709    697.96691
  426700    331.10382      0.21335   0.34817615   0.72828619   -103.03256     2.353919    8.4738168     10.19313     712.1595
  426800    303.57919       0.2134    1.0440389  0.057256226   -102.82784     2.158238    8.4091189     10.19355    706.75126
  426900    310.53033      0.21345  0.094508725   0.29413374   -102.66674    2.2076557    8.2389391     10.19397     692.4769
  427000    367.94469       0.2135   -1.5472775  -0.38535731    -102.6563    2.6158322    8.2187627     10.19439    690.80955
  427100    312.64147      0.21355   0.67358581    1.5729079    -102.3702    2.2226645    8.3989427     10.19481    705.98326
  427200    294.55736       0.2136    0.4604225    1.5103047   -102.86349     2.094099    8.3019066     10.19523    697.85553
  427300    275.78713      0.21365  -0.45027143  -0.22401489   -102.86591    1.9606556    8.2968993     10.19565    697.46335
  427400    277.39152       0.2137  0.019041985   0.30984729   -102.78529    1.9720617    8.3043446     10.19607    698.11799
  427500    286.57127      0.21375    0.1907291  -0.39444022   -102.46941    2.0373234    8.3103649     10.19649    698.65287
  427600    356.27591       0.2138  -0.49322884  -0.46956514   -102.51883    2.5328752    8.3548562     10.19691     702.4222
  427700     338.5119      0.21385    1.2269634    0.1629011   -102.25333    2.4065853    8.3279531     10.19733     700.1892
  427800    289.94584       0.2139   -1.4573389   0.63013921     -102.618    2.0613143    8.2259298     10.19775    691.63988
  427900    330.89978      0.21395   0.63263683   0.73614322   -103.07176    2.3524685      8.32793     10.19817    700.24494
  428000     309.4639        0.214  -0.06549013    1.4461449   -103.06998    2.2000742     8.347048     10.19859    701.88137
  428100    293.93454      0.21405   0.24374255   0.39270224   -103.04113    2.0896711    8.3443049     10.19901    701.67961
  428200    298.52279       0.2141   -0.1553639   0.15148297   -102.86172    2.1222904    8.3299302     10.19943    700.49968
  428300    347.94582      0.21415 0.0025480515  -0.42249531    -102.6696     2.473654    8.2975736     10.19985    697.80741
  428400    280.68618       0.2142  -0.49800461   0.53937828   -102.30267    1.9954845    8.3784959     10.20027    704.64181
  428500    277.37012      0.21425     1.010001    1.3611561   -102.57692    1.9719096    8.3194314    10.200691    699.70323
  428600    263.06092       0.2143  -0.45986024   0.53151864   -102.92299    1.8701811    8.2904818    10.201111    697.29714
  428700    234.60108      0.21435   -0.2459004   0.19067057   -102.89021    1.6678513    8.2652835    10.201531    695.20639
  428800    240.93078       0.2144   0.14149061   0.39323738   -102.77856    1.7128511    8.3969424    10.201951    706.30951
  428900    294.31175      0.21445   -0.0625536  0.063104453   -102.96634    2.0923529    8.3407507    10.202371    701.61183
  429000    287.69164       0.2145   0.38024525  -0.95174558   -102.70912    2.0452885    8.3779642    10.202791     704.7712
  429100    335.97559      0.21455   0.13155151   0.52443438   -102.78475    2.3885539    8.3087667    10.203211    698.97894
  429200    339.75821       0.2146  -0.39181576   0.75098941   -102.63094    2.4154458    8.2570129    10.203631    694.65372
  429300    263.93335      0.21465   0.12521458    1.7142055   -102.37286    1.8763835    8.3116182    10.204051    699.27639
  429400    272.69703       0.2147  -0.17912903    1.4898171   -102.81844    1.9386871    8.2760026    10.204471    696.30863
  429500    241.73573      0.21475  -0.11345335 0.0083881849   -102.92207    1.7185737    8.3150655    10.204891    699.62402
  429600    249.05251       0.2148  0.038853135  -0.19485134   -102.87317     1.770591    8.4150798    10.205311     708.0683
  429700    300.62513      0.21485   0.20568763  -0.81131817   -102.55653    2.1372366    8.3557976    10.205731    703.10907
  429800    335.28767       0.2149 0.0062863761 -0.042075055   -102.81612    2.3836633     8.378279    10.206151    705.02982
  429900    288.34499      0.21495    0.6108894   0.55165302    -102.6081    2.0499333    8.3391343    10.206571    701.76467
  430000    321.49404        0.215  -0.94401568    2.1752836    -102.7451    2.2856001    8.2453925    10.206991    693.90457
  430100    214.34244      0.21505   0.23223743   0.14503707   -102.32406    1.5238264    8.3136344    10.207411    699.67637
  430200     261.8673       0.2151  0.064106455  -0.26893919   -102.89895    1.8616953    8.3419449    10.207832    702.08787
  430300    294.25149      0.21515   0.41366178    1.0585552   -102.89686    2.0919245    8.2577692    10.208252    695.03194
  430400    334.19667       0.2152  -0.74001607  0.066538129   -102.65336    2.3759071    8.2897663    10.208672    697.75376
  430500    302.27715      0.21525  -0.39921026  0.002144724   -102.17839    2.1489814    8.4090403    10.209092    707.82223
  430600     292.7708       0.2153    1.4959011   0.30184602   -102.28684    2.0813978    8.4502191    10.209512    711.31768
  430700    274.28356      0.21535  -0.58314781  -0.38889023   -102.75595    1.9499663    8.2797341    10.209932    696.99537
  430800    302.56542       0.2154  -0.10038122  -0.24811717   -103.08304    2.1510308    8.2869254    10.210352    697.62944
  430900    276.30737      0.21545  -0.13976892    1.8797051   -102.68096    1.9643542    8.3308581    10.210772    701.35674
  431000    300.00582       0.2155   0.45208841    1.9394942   -102.44403    2.1328337    8.2471739    10.211192    694.34011
  431100    256.84566      0.21555  -0.72885351  -0.56813876   -102.21346    1.8259949    8.3360093    10.211612    701.84815
  431200     261.9432       0.2156   0.60544406   0.51898874   -102.48195    1.8622349    8.3361499    10.212032    701.88886
  431300    295.14313      0.21565 -0.079767873   0.60173838   -102.80072    2.0982634    8.2680409    10.212452    696.18284
  431400     286.2505       0.2157  -0.65240817  -0.36864831   -102.78381     2.035043    8.3667274    10.212872    704.52138
  431500    355.82646      0.21575   0.75552423  -0.43651728   -103.18591    2.5296799    8.3748114    10.213292     705.2311
  431600    281.77674       0.2158   0.34005849  -0.73075011   -102.71918    2.0032376     8.347262    10.213712    702.94012
  431700    338.53859      0.21585   -1.2269292   0.27304199   -102.82391    2.4067751    8.2686098    10.214132    696.34529
  431800    325.10002       0.2159    1.1559719   -0.3476999   -102.41576    2.3112362    8.3939515    10.214552    706.93007
  431900    314.40173      0.21595  -0.87899495  -0.62177296   -102.56636    2.2351787    8.2852823    10.214973    697.80677
  432000    295.11266        0.216    0.2973334   -1.5456802   -102.93269    2.0980468    8.3667032    10.215393    704.69321
  432100    268.45225      0.21605   0.17610101 -0.040143029   -102.86224    1.9085097    8.4452354    10.215813     711.3369
  432200    270.65483       0.2161   0.73843156   0.61243192   -102.79625    1.9241686    8.2819583    10.216233    697.61286
  432300    325.81647      0.21615  -0.86727241   0.18035943   -102.89138    2.3163296    8.2186644    10.216653     692.3099
  432400    306.76469       0.2162  -0.52244052    1.0337313   -102.53541    2.1808846    8.2727711    10.217073     696.8963
  432500    357.30171      0.21625   0.33038952  -0.44463478   -102.62077    2.5401679    8.4120443    10.217493    708.65777
  432600    291.35749       0.2163   0.54119338   0.42430755   -102.29382    2.0713501    8.4055912    10.217913    708.14325
  432700    263.65516      0.21635   0.58281781 -0.010801944   -102.56226    1.8744058     8.298021    10.218333    699.10956
  432800     336.5211       0.2164   -1.6945255   0.53776798   -103.32672    2.3924322    8.2785367    10.218753    697.49668
  432900    235.66739      0.21645   0.85511393   0.18003999   -102.86911    1.6754321     8.376562    10.219173    705.78467
  433000    258.91792       0.2165   0.59571631   0.33738187   -102.79602    1.8407272    8.2907919    10.219593    698.58665
  433100    361.02628      0.21655  -0.81623136  -0.09779177   -102.97459     2.566647    8.2345736    10.220013    693.87819
  433200    309.01159       0.2166  -0.43796006  0.024268293   -102.85419    2.1968586    8.3523187    10.220433    703.82878
  433300    283.13761      0.21665     1.235361   0.91776661   -102.87866    2.0129125    8.4031169    10.220853    708.13853
  433400    274.76294       0.2167  -0.49345505   0.38729126   -102.78595    1.9533744    8.2449097    10.221273    694.83481
  433500    326.26877      0.21675  -0.57154907   0.71176109   -102.63122    2.3195452     8.344121    10.221693    703.22469
  433600    321.08429       0.2168    0.6685097   0.44885975   -102.61411    2.2826871    8.3786624    10.222114    706.16478
  433700    257.43717      0.21685  -0.21012035   0.15802084   -102.41462    1.8302001    8.2991659    10.222534    699.49345
  433800    311.87725       0.2169  -0.63089794  -0.28269933    -102.9461    2.2172314     8.393519    10.222954    707.47505
  433900    300.81187      0.21695    1.4516605    1.0978012   -102.89909    2.1385642    8.3563136    10.223374    704.36801
  434000    295.57177        0.217    -0.594297   0.28122284   -102.79226    2.1013107    8.1754246    10.223794    689.14889
  434100    346.40849      0.21705   -1.0922825   0.06337684   -102.90694    2.4627246    8.2995537    10.224214    699.64111
  434200    360.65305       0.2171   0.77695746   0.43507881   -102.28582    2.5639936    8.4749318    10.224634     714.4546
  434300    368.29917      0.21715    0.8714671    1.0037585    -102.2638    2.6183522    8.3097647    10.225054    700.55945
  434400    325.83699       0.2172  -0.37397375    1.1657169   -102.55224    2.3164755    8.1360347    10.225474    685.94122
  434500    279.84475      0.21725   -1.2907286    1.3276664   -102.47585    1.9895025    8.2822571    10.225894    698.29777
  434600    301.61223       0.2173   0.55775406   0.50297023   -102.67986    2.1442542    8.4038696    10.226314    708.58033
  434700    244.64896      0.21735   0.63297552  -0.18042742    -102.7067    1.7392848    8.3690537    10.226734    705.67378
  434800    279.96738       0.2174  -0.72363349  -0.19309305   -102.96661    1.9903743    8.3471943    10.227154    703.85952
  434900    341.70154      0.21745   0.41494836   0.95440327   -103.00857    2.4292615    8.3753235    10.227574    706.26046
  435000    387.07068       0.2175    0.6544093  -0.49972456   -102.65437    2.7518046    8.2945457    10.227994    699.47749
  435100    310.56924      0.21755  -0.54055207   0.35851184   -102.22321    2.2079323    8.1564391    10.228414    687.85923
  435200    330.06951       0.2176 -0.086663697    1.2346415   -102.52277    2.3465658     8.249851    10.228834    695.76554
  435300    271.18448      0.21765  -0.20261141    1.5497242   -102.21903     1.927934    8.2199912    10.229255    693.27573
  435400    286.67094       0.2177   0.18001809   0.23888916   -102.44821     2.038032    8.3082126    10.229675    700.74512
  435500    279.72061      0.21775  -0.44066469   0.63486761    -102.8047    1.9886199    8.3300715    10.230095    702.61762
  435600    215.74785       0.2178   0.66082821   0.48988139   -102.71654    1.5338179     8.382951    10.230515    707.10689
  435700    257.59159      0.21785  -0.19095975   0.35804062   -102.83594     1.831298    8.3378427    10.230935    703.33085
  435800    269.31668       0.2179  -0.18681539  -0.47314761   -102.69002    1.9146552    8.3617567    10.231355    705.37706
  435900    333.58779      0.21795   0.74293831   0.21096793   -102.96606    2.3715784    8.3259961    10.231775    702.38922
  436000    317.57491        0.218  -0.20602673  0.046199729   -103.08416    2.2577378    8.1938363    10.232195    691.26847
  436100    248.39566      0.21805  -0.29753241   0.75653423   -102.90062    1.7659212    8.1680762    10.232615    689.12352
  436200     300.9582       0.2181   0.38752137    1.4747187   -102.99759    2.1396046    8.0962811    10.233035    683.09436
  436300    342.66477      0.21815  -0.81103192  -0.35679709   -102.54407    2.4361094    8.1280699    10.233455    685.80458
  436400    339.23922       0.2182  -0.34081245   0.56541604   -102.67197    2.4117561    8.1710415    10.233875    689.45859
  436500    326.73385      0.21825    1.4513628   0.93679983   -103.07829    2.3228516    8.2315937    10.234295     694.5964
  436600    328.36806       0.2183  -0.74021902 -0.0022533871   -103.62363    2.3344696    8.1064352    10.234715    684.06338
  436700    267.70959      0.21835  -0.26363369   0.11376522    -103.5286    1.9032299    8.1476666    10.235135    687.57092
  436800    315.35181       0.2184  0.014619604  -0.54091304   -103.84295    2.2419331     8.274846    10.235555    698.33208
  436900    269.15288      0.21845    0.5876868   0.59365344   -103.31078    1.9134907     8.209525    10.235975    692.84793
  437000    364.65773       0.2185   0.30794941   0.10086016   -103.39074    2.5924641    8.1502221    10.236395    687.87125
  437100    314.05908      0.21855  -0.99776326    2.0863994   -103.07466    2.2327427    8.0927283    10.236816    683.04686
  437200     307.4479       0.2186   0.37845842  0.010571748   -103.30181    2.1857418    8.1489344    10.237236    687.81902
  437300     256.4232      0.21865  -0.38968202   0.95247426   -103.32925    1.8229915     8.189331    10.237656     691.2571
  437400    272.29068       0.2187   0.58482817   -0.7143388   -103.53346    1.9357983    8.2753557    10.238076    698.54706
  437500     266.3098      0.21875  -0.15440253  -0.38276883   -103.41555    1.8932784    8.2622178    10.238496    697.46666
  437600     283.5674       0.2188   0.75867754   0.31770787    -103.5111     2.015968    8.1608997    10.238916    688.94202
  437700    259.31701      0.21885   -1.5620404   0.75954619    -103.2067    1.8435645    8.1716363    10.239336     689.8767
  437800    323.02133       0.2189   0.92502749    1.1594689   -103.27575    2.2964581     8.247717    10.239756    696.32825
  437900    354.57585      0.21895   0.27399246    1.1624087   -103.20691    2.5207889    8.1995457    10.240176     692.2897
  438000    401.18706        0.219 -0.077269987  -0.34184983   -102.97749    2.8521623    8.1524187    10.240596      688.339
  438100    327.15383      0.21905   -1.2857377   -0.2550773   -103.05598    2.3258374    8.1826675    10.241016    690.92135
  438200     296.4551       0.2191    1.3404315   0.37098276   -103.13515    2.1075906    8.2941666    10.241436    700.36474
  438300    322.79991      0.21915  -0.42037595  -0.25116711   -103.53887     2.294884    8.2324782    10.241856    695.18425
  438400    296.28657       0.2192    0.4431807   -1.3928129   -103.75104    2.1063925    8.1216851    10.242276    685.85656
  438500    252.31725      0.21925  -0.79959887   0.92646308   -103.56258     1.793801    8.2243946    10.242696    694.55861
  438600    301.45503       0.2193  0.096514348  -0.45670959   -103.63092    2.1431366    8.2764823    10.243116    698.98613
  438700    295.59685      0.21935   0.39635431   0.57863825   -103.43132    2.1014891    8.3303276    10.243536    703.56246
  438800    338.75594       0.2194 -0.006229268  -0.41200385   -103.62636    2.4083203    8.2732924    10.243957    698.77404
  438900    299.94326      0.21945   0.66453985  -0.30577977   -103.50127     2.132389    8.1620076    10.244377    689.40304
  439000    274.15212       0.2195   -1.2543251   0.02305102   -103.72741    1.9490318    8.1998548    10.244797    692.62819
  439100    277.45286      0.21955   0.51373018  -0.18199388   -103.91573    1.9724978     8.220289    10.245217    694.38271
  439200    327.91296       0.2196  -0.12415897   -1.1496633   -103.72513    2.3312342    8.2860042    10.245637    699.96249
  439300    313.07885      0.21965  -0.26397831   0.84404252   -103.41903    2.2257739    8.3121239    10.246057    702.19774
  439400    299.42985       0.2197    1.2233941   0.25691622   -103.35994    2.1287391    8.3193198    10.246477    702.83445
  439500    322.90261      0.21975  -0.75520277  -0.58514455   -103.52243    2.2956141    8.1722828    10.246897    690.44075
  439600    291.46294       0.2198  -0.12597711   0.36354184   -103.68835    2.0720998    8.2165931    10.247317     694.2128
  439700    253.79187      0.21985  0.014010203  0.013735702   -103.66959    1.8042846    8.2186195    10.247737    694.41247
  439800    291.25621       0.2199  -0.24764838   0.19837868   -103.40348    2.0706301    8.2087128    10.248157    693.60385
  439900    302.61421      0.21995   0.23601838  -0.76372808   -103.21738    2.1513776    8.2808094    10.248577    699.72441
  440000    254.85138         0.22  -0.27578892  -0.79500865    -103.0625     1.811817    8.3416535    10.248997     704.8946
  440100     300.9346      0.22005    1.0508056  0.040632528   -103.62332    2.1394367    8.2800575    10.249417    699.71823
  440200    280.36061       0.2201  -0.39804394     1.462898   -103.56357    1.9931699    8.1755437    10.249837    690.91445
  440300    300.43919      0.22015  -0.75650182  0.089594103   -103.54787    2.1359148    8.1497296    10.250257    688.76113
  440400    284.79266       0.2202 0.0019721554 -0.034155616   -103.13837    2.0246788    8.3638157    10.250677    706.88323
  440500    311.98133      0.22025   0.56605669  -0.54772976   -103.11212    2.2179714    8.3213803    10.251098    703.32556
  440600    295.33798       0.2203   0.67899051  -0.20942832   -103.14788    2.0996487    8.2210411    10.251518    694.87332
  440700    292.40766      0.22035   -1.1555017  -0.46518874   -103.37183    2.0788161    8.1597457    10.251938    689.72067
  440800    288.18641       0.2204 -0.030701008 -0.0058189839   -103.70952     2.048806    8.3108519    10.252358    702.52204
  440900    268.42949      0.22045   0.65971653  -0.50853002    -103.8057    1.9083479     8.249493    10.252778     697.3639
  441000    267.75417       0.2205  -0.15450933    0.9026217   -103.75116    1.9035468    8.2808308    10.253198     700.0417
  441100    325.48314      0.22055   0.11945906  -0.59207129   -103.47291    2.3139599     8.175019    10.253618    691.12493
  441200    273.29868       0.2206  -0.02265902  -0.16132984   -102.95986    1.9429645    8.1506349    10.254038     689.0917
  441300    283.61836      0.22065  -0.52764224  -0.38715725   -103.06195    2.0163303     8.195157    10.254458    692.88418
  441400    284.69227       0.2207     0.870007     1.057076   -103.52567     2.023965    8.1673451    10.254878    690.56103
  441500    288.12692      0.22075   -0.7570715   0.75051879   -103.76422     2.048383     8.147933    10.255298    688.94793
  441600     309.5376       0.2208   -0.2037869 -0.0067309333   -103.85082    2.2005981    8.2542533    10.255718    697.96642
  441700    261.14056      0.22085   0.13920425  -0.25226255   -103.49394    1.8565287    8.3174111    10.256138    703.33575
  441800    271.86188       0.2209   0.99946589  -0.24000992   -103.41698    1.9327498    8.2913222    10.256558    701.15834
  441900    314.60932      0.22095   -1.0014408    -1.617215   -103.40672    2.2366545    8.2394273    10.256978    696.79837
  442000    340.62026        0.221   0.27268103   -1.2302063   -103.62934    2.4215743    8.3121689    10.257398    702.97883
  442100    295.69507      0.22105   0.82828321    0.8323689   -103.46027    2.1021873    8.2963349    10.257818    701.66844
  442200    300.36784       0.2211  -0.11135366    1.4599179   -103.53977    2.1354075     8.021929    10.258239    678.48814
  442300     255.2332      0.22115  -0.73113666    1.2606678   -103.13021    1.8145314    8.0170723    10.258659    678.10514
  442400    350.64976       0.2212  -0.67028067   0.51403435   -103.67572    2.4928771    8.1533844    10.259079    689.66302
  442500    292.76679      0.22125   0.23489607   -0.1159484   -103.42693    2.0813692    8.2504526    10.259499    697.90221
  442600    296.23351       0.2213   0.97117351  -0.67659654   -103.60116    2.1060153    8.2807672    10.259919    700.49519
  442700     269.8417      0.22135  -0.92894809   -1.7327451    -103.5098    1.9183878    8.2397127    10.260339     697.0508
  442800    290.17357       0.2214   0.68879566  -0.49905196    -103.5414    2.0629333    8.2909942    10.260759    701.41775
  442900    294.02601      0.22145 -0.013088522    1.1411142   -103.19496    2.0903214    8.2113102    10.261179    694.70493
  443000    339.34505       0.2215 -0.072149252   0.98434198   -103.41045    2.4125085    8.1779711    10.261599    691.91265
  443100    264.08637      0.22155   -1.0893051 -0.099938394   -103.37931    1.8774713    8.2468033    10.262019    697.76489
  443200    284.07127       0.2216    1.5007745   0.47950021   -103.49255    2.0195502    8.3090944    10.262439    703.06414
  443300     410.5736      0.22165  -0.47316867 -0.0097966886    -103.9798    2.9188941    8.2104761    10.262859     694.7481
  443400     319.2817       0.2217   0.40164027   0.17372816   -103.46274    2.2698719    8.1236302    10.263279    687.42758
  443500    253.11634      0.22175  -0.78142864   0.37709134   -103.51603     1.799482    8.1269481    10.263699    687.73649
  443600    274.78658       0.2218  0.072063076    0.2827709   -103.68183    1.9535424    8.1951976    10.264119    693.54042
  443700    298.11054      0.22185 -0.017237444  0.082064698   -103.54497    2.1193596     8.274486    10.264539    700.27908
  443800     345.9409       0.2219   0.59462773   0.84218714   -103.41762    2.4594004    8.2373049    10.264959    697.16093
  443900    306.32561      0.22195   -0.3473143  -0.90518926   -103.18931    2.1777631    8.2019064    10.265379     694.1934
  444000    338.90155        0.222   0.38276081   0.59001217   -103.36859    2.4093555    8.2040761      10.2658    694.40545
  444100    329.79192      0.22205  -0.56681934   0.97456962   -103.42009    2.3445923    8.1905125     10.26622    693.28577
  444200    305.33171       0.2221   0.99809598    1.4238665   -103.45697    2.1706971    8.1670672     10.26664    691.32953
  444300    278.40889      0.22215   -1.4196455   0.85853754   -103.30578    1.9792945    8.1501569     10.26706    689.92633
  444400    359.05073       0.2222   0.49626956  -0.20461918   -103.88617    2.5526022    8.2579543     10.26748    699.08018
  444500    250.71647      0.22225   0.18063462    -0.373649   -103.53067    1.7824206    8.3496961      10.2679    706.87553
  444600    275.38406       0.2223   0.91312495  0.082860887   -103.99366    1.9577901    8.1897386     10.26832    693.36208
  444700    217.01532      0.22235   -1.2831722   0.42399817   -103.59285    1.5428287    8.0938874     10.26874    685.27513
  444800    293.07253       0.2224  -0.39770365   0.79308138   -103.59882    2.0835428    8.3247564     10.26916    704.85067
  444900    303.81154      0.22245    1.0701351    0.7309696   -103.39455    2.1598898    8.3251451     10.26958    704.91241
  445000    294.81456       0.2225   0.37947009   0.49779724   -103.19127    2.0959275    8.1572035        10.27     690.7206
  445100     344.7751      0.22255   -1.4006049   0.25093018   -103.30945    2.4511124    8.1141474     10.27042    687.10288
  445200    320.85414       0.2226   0.44705388 -0.033772154   -103.60958    2.2810509    8.2491095     10.27084    698.55998
  445300    280.32921      0.22265   0.48690653   0.29434362   -103.68331    1.9929467     8.305118     10.27126    703.33172
  445400    291.99439       0.2227  -0.23344942  -0.27542056   -103.54352     2.075878    8.1629988     10.27168    691.32441
  445500    301.76632      0.22275  0.042951307   0.20615003   -103.43202    2.1453497    8.2278976      10.2721    696.84919
  445600    278.20155       0.2228  -0.50029386   -0.4349585   -103.52024    1.9778205    8.2697733     10.27252    700.42442
  445700    304.84345      0.22285     1.196127   0.45289364   -103.88297     2.167226    8.2196607    10.272941    696.20851
  445800    297.33305       0.2229  -0.80816145  -0.79014429   -103.63013    2.1138322    8.2135302    10.273361     695.7177
  445900    317.98634      0.22295  0.021348234   0.34697348   -103.34403    2.2606628    8.2119688    10.273781    695.61388
  446000    402.58202        0.223  -0.19834755   0.20621189    -103.8475    2.8620796    8.2284574    10.274201    697.03909
  446100    267.23125      0.22305   0.39918313  0.038130593   -103.31846    1.8998293    8.2828691    10.274621    701.67703
  446200    288.87113       0.2231  -0.20070638   0.50352588   -103.62088    2.0536738    8.2043586    10.275041    695.05449
  446300    323.21517      0.22315   0.31432724    1.2368218   -103.69815    2.2978362    8.1704368    10.275461      692.209
  446400    368.96585       0.2232  -0.41530046   -1.8086981   -103.28527    2.6230919    8.2017749    10.275881    694.89241
  446500    327.26777      0.22325  -0.75412599   0.69087393   -103.20549    2.3266474    8.2870121    10.276301    702.14281
  446600     235.4525       0.2233    1.4962127 -0.083632538   -102.84133    1.6739043    8.3542583    10.276721    707.86939
  446700    338.82895      0.22335  -0.38509152   0.31183914    -103.6455    2.4088394    8.2732624    10.277141    701.03512
  446800    290.43635       0.2234  -0.11960616  -0.20077835   -103.55832    2.0648014    8.1942335    10.277561    694.36699
  446900    259.40589      0.22345  -0.35140527  -0.12869172   -103.37468    1.8441964    8.2852263    10.277981    702.10628
  447000    311.52589       0.2235   0.37680288   0.07911816   -103.60767    2.2147335    8.2730279    10.278401    701.10122
  447100    309.63482      0.22355   0.23002569  0.069636625   -103.40685    2.2012893    8.2371868    10.278821    698.09237
  447200    328.94091       0.2236  -0.27802278   0.57285884   -103.11513    2.3385423    8.1924641    10.279241    694.33055
  447300    356.34763      0.22365  -0.43616217   0.99299189   -103.09349    2.5333851    8.2656839    10.279661    700.56472
  447400    327.85674       0.2237    0.6427445    0.2344245   -103.52197    2.3308346    8.2915973    10.280082    702.78975
  447500    293.31967      0.22375  -0.44373787 -0.072439609   -103.42913    2.0852999    8.2956971    10.280502    703.16598
  447600    329.51888       0.2238   0.11374338  -0.96546693    -103.6926    2.3426512    8.3021706    10.280922    703.74345
  447700    258.43996      0.22385   0.85595379   0.96767544    -103.4408    1.8373293    8.2416036    10.281342    698.63795
  447800    262.16579       0.2239    -1.150794  -0.77691878   -103.65284    1.8638173    8.1838037    10.281762    693.76662
  447900     285.3111      0.22395   0.17293604  -0.29806698   -103.72641    2.0283645    8.2587425    10.282182    700.14802
  448000    309.09123        0.224   0.69651865   0.66746313   -103.36685    2.1974248    8.3156716    10.282602    705.00308
  448100    287.52863      0.22405   0.28575673   0.45473889   -103.05283    2.0441296    8.1125151    10.283022    687.80755
  448200    302.72992       0.2241   -1.4170768  -0.26095472   -103.37849    2.1522002    8.1323862    10.283442    689.52046
  448300    287.20363      0.22415 -0.0058594272  -0.22175356   -103.77167    2.0418191    8.2977213    10.283862    703.56746
  448400    258.98142       0.2242    1.1508925    1.3980576   -103.74951    1.8411786    8.3151172    10.284282    705.07127
  448500    266.33818      0.22425   -0.3414412   0.19049849   -103.60944    1.8934802    8.1886674    10.284702    694.37746
  448600    324.23446       0.2243  -0.80048385   -0.9645854   -103.72481    2.3050826    8.2571847    10.285122    700.21614
  448700    285.10432      0.22435     1.034886  0.068662914   -103.19494    2.0268944    8.3724708    10.285542    710.02149
  448800    389.28951       0.2244 -0.0011746357   -1.0817149   -103.64784     2.767579    8.2813204    10.285962    702.32023
  448900    280.76063      0.22445  -0.57829127   0.23650678   -103.26579    1.9960138    8.2328282    10.286382    698.23623
  449000    224.58542       0.2245   0.20386833   0.60379665    -103.3147    1.5966469    8.2225873    10.286802    697.39617
  449100    323.74591      0.22455  -0.03050258    1.0026197   -103.83876    2.3016094    8.2352687    10.287223    698.50026
  449200    301.16001       0.2246    0.3805596    0.8987009    -103.5364    2.1410393    8.2346511    10.287643    698.47639
  449300    291.74306      0.22465  -0.50862905   0.21855188   -103.23316    2.0740913     8.161971    10.288063    692.33981
  449400    359.40404       0.2247  -0.36735432   -1.1319889   -103.44675     2.555114    8.2832311    10.288483     702.6544
  449500    362.01821      0.22475   0.70440798 0.0016416577   -103.28342    2.5736989    8.3429947    10.288903    707.75296
  449600    319.01896       0.2248   0.44534893   0.60169277   -103.46876     2.268004    8.2426743    10.289323    699.27112
  449700    263.23979      0.22485  -0.72109452 0.0035335843    -103.3555    1.8714528    8.0831474    10.289743    685.76558
  449800    297.21116       0.2249  -0.21124817   0.15777108   -103.56692    2.1129657     8.191405    10.290163     694.9784
  449900    326.55117      0.22495  0.077771958 -0.027261591   -103.66437    2.3215528    8.2705304    10.290583    701.72024
  450000    246.28516        0.225   0.63848523  -0.20179027    -103.3264    1.7509171    8.2385638    10.291003    699.03653
  450100    254.98578      0.22505  -0.20821695 -0.056303612    -103.5074    1.8127724    8.1647185    10.291423    692.79909
  450200    291.09904       0.2251  -0.31593387   0.23718058   -103.45415    2.0695127    8.1546229    10.291843     691.9707
  450300    321.85679      0.22515  -0.54921249  -0.35397044   -103.25257     2.288179    8.2603051    10.292263     700.9671
  450400    306.22666       0.2252   0.89038155   0.52320767   -103.03545    2.1770597    8.3376031    10.292683    707.55546
  450500    292.79022      0.22525   0.50958624  0.096788127   -103.11453    2.0815359     8.299159    10.293103    704.32171
  450600    326.20549       0.2253  -0.83339083   0.62238564   -103.56204    2.3190953    8.1593124    10.293523    692.48166
  450700    279.67982      0.22535  0.068542951   0.29557081   -103.93787      1.98833    8.2322954    10.293943    698.70425
  450800    233.71054       0.2254 -0.0068517209  -0.90926531   -103.63634    1.6615202    8.3198338    10.294364    706.16276
  450900    336.99136      0.22545   0.62480767  -0.23998511   -103.90723    2.3957754    8.1784632    10.294784    694.19197
  451000    315.69239       0.2255   -0.3490682    1.9564144   -103.45916    2.2443544      8.16235    10.295204    692.85254
  451100    299.47409      0.22555  -0.49760103    0.8462674   -103.18643    2.1290536    8.1370349    10.295624    690.73187
  451200    251.25725       0.2256    0.4650846    1.9640213   -102.72808    1.7862651    8.1484656    10.296044    691.73042
  451300    309.15764      0.22565  -0.14761313   0.14019619   -102.81623    2.1978969    8.2077213    10.296464    696.78911
  451400     327.8329       0.2257  -0.46320002   0.35794142   -103.30048    2.3306651     8.215029    10.296884    697.43795
  451500    312.66266      0.22575   0.46228838  0.017147039   -103.64154    2.2228151    8.3116567    10.297304    705.67021
  451600    317.10091       0.2258   0.26485957  -0.66366584   -103.78949     2.254368    8.2857266    10.297724    703.49741
  451700    294.80367      0.22585   0.26031457  0.069495654   -103.54028    2.0958501     8.157047    10.298144    692.60016
  451800    317.14767       0.2259  -0.85303046   0.27294057   -103.19611    2.2547005    8.1982308    10.298564    696.12539
  451900    312.72492      0.22595   0.60117629   0.96378059   -102.96934    2.2232578    8.2402016    10.298984    699.71774
  452000    298.49882        0.226   0.64432281    1.1970401   -103.08155      2.12212    8.0663059    10.299404     684.9793
  452100    292.73646      0.22605   -1.8550956   0.81025446   -103.50617    2.0811536     8.145977    10.299824    691.77307
  452200    263.45388       0.2261    1.0710455     1.035087   -103.74077    1.8729747    8.2324662    10.300244    699.14642
  452300     306.0245      0.22615  0.055495541   0.37892323   -103.86671    2.1756224    8.2498641    10.300664    700.65253
  452400    300.32509       0.2262  -0.38104945  -0.18923456   -103.49149    2.1351035    8.1977435    10.301084    696.25436
  452500    322.34458      0.22625   0.47265164  -0.16521682   -103.20794    2.2916469    8.2756593    10.301504    702.90061
  452600    326.10172       0.2263   -1.0126461  -0.26716482   -103.23808    2.3183576    8.3100899    10.301925    705.85379
  452700    303.07737      0.22635    1.5989399   0.74370174   -103.36237    2.1546704    8.3023327    10.302345    705.22365
  452800     307.0696       0.2264  -0.47428801   0.23655483   -103.71274    2.1830523    8.1484892    10.302765    692.18396
  452900    271.50342      0.22645  -0.29789757    0.9883366   -103.93219    1.9302014    8.0594217    10.303185    684.64593
  453000    237.32187       0.2265  -0.54960501    0.8713997   -104.02966    1.6871942    8.1595435    10.303605     693.1795
  453100    249.47894      0.22655   0.32795688   0.99898697   -104.10632    1.7736226    8.2374566    10.304025    699.82701
  453200    261.60694       0.2266   0.36847601   0.99673462   -103.60907    1.8598443    8.1871993    10.304445    695.58567
  453300    256.80585      0.22665  -0.63067997  -0.35378159   -103.15088    1.8257119    8.2386263    10.304865    699.98345
  453400    320.65427       0.2267   0.28551588  -0.46024284   -103.26343      2.27963    8.3032647    10.305285    705.50411
  453500      310.442      0.22675    1.0233826    1.2231321   -103.28624    2.2070278    8.2613843    10.305705    701.97427
  453600    299.48937       0.2268   -1.4046155   -1.7066463   -103.62981    2.1291622     8.150714    10.306125    692.59879
  453700    230.74569      0.22685     0.020162   0.46372224    -103.4365    1.6404421    8.2675841    10.306545    702.55834
  453800    285.67633       0.2269   0.93846914   0.11505184   -103.60586     2.030961    8.3582726    10.306965    710.29377
  453900    347.23465      0.22695  0.033485853    1.3159015   -103.79323    2.4685981    8.2097337    10.307385    697.69922
  454000     284.7848        0.227  -0.06523754   0.29225088   -103.41209    2.0246229    8.1242945    10.307805    690.46636
  454100    280.57206      0.22705   -1.6435631   0.73724373    -103.4271    1.9946732    8.1386509    10.308225    691.71467
  454200    330.43593       0.2271    1.3228182   -1.3732525    -103.3895    2.3491708     8.312194    10.308645    706.49312
  454300    375.42632      0.22715 -0.020383432   0.12781101   -103.03431    2.6690213     8.341595    10.309066    709.02094
  454400    323.76688       0.2272   0.80688572   0.16193477   -102.87687    2.3017585    8.1567562    10.309486    693.33822
  454500    367.99851      0.22725   -1.7825435   0.52903027   -103.61952    2.6162148    8.2702697    10.309906     703.0157
  454600    313.96389       0.2273    1.2981846  0.011137558   -103.48406     2.232066    8.3558968    10.310326    710.32339
  454700    319.56105      0.22735  -0.22193178   0.83653847     -103.733    2.2718579    8.2286106    10.310746    699.53146
  454800    285.77247       0.2274   -0.2164102   -1.1118801    -103.7038    2.0316445    8.1772718    10.311166    695.19536
  454900    321.16175      0.22745  -0.28551853  0.099551089   -103.83912    2.2832378    8.2701081    10.311586    703.11653
  455000    304.12861       0.2275   0.53182618  -0.74523132   -103.16796     2.162144    8.3380478    10.312006    708.92157
  455100     332.5258      0.22755   0.58768972   0.64018202   -103.06397    2.3640283    8.1259756    10.312426    690.91881
  455200    280.68491       0.2276  -0.98236419   0.21864341   -102.95943    1.9954755    8.0713959    10.312846    686.30608
  455300    279.45101      0.22765  -0.56800655   0.79762011   -103.12494    1.9867033    8.1583817    10.313266    693.73068
  455400    295.45378       0.2277    1.0260885   0.62306187   -103.28999    2.1004719    8.2577482    10.313686    702.20871
  455500    273.89084      0.22775  -0.58907108   -1.0523125   -103.49047    1.9471743    8.2542477    10.314106    701.93962
  455600    253.79849       0.2278   0.72063109  -0.25619692   -103.55564    1.8043316    8.2740219    10.314526    703.64987
  455700    242.31386      0.22785  -0.10246297 -0.030742424   -103.33623    1.7226838    8.1984481    10.314946    697.25122
  455800    295.44689       0.2279  -0.71582978  -0.19164074   -103.52453    2.1004229    8.2269722    10.315366     699.7056
  455900    293.39292      0.22795   0.56497941   0.98206144   -103.38466    2.0858206     8.259386    10.315786    702.49101
  456000    288.30585        0.228   0.30120754   0.79090069   -103.16868    2.0496551    8.2048883    10.316207    697.88419
  456100    317.08276      0.22805  -0.66881468   0.62198249   -103.02605     2.254239    8.1215752    10.316627    690.82594
  456200    332.62167       0.2281   0.59652953   0.40875864   -103.09154    2.3647099    8.1383033    10.317047    692.27704
  456300    330.42733      0.22815  -0.59346754   0.96518686   -103.40672    2.3491097    8.1515275    10.317467    693.43017
  456400    283.33957       0.2282   0.19374877   0.83041652   -103.48546    2.0143483    8.1474781    10.317887    693.11392
  456500     264.4441      0.22825  -0.61886451   0.39216765   -103.53329    1.8800145    8.2977134    10.318307    705.92332
  456600    334.82347       0.2283   0.96702427  -0.13230836     -103.693    2.3803632    8.3185641    10.318727    707.72599
  456700    324.33986      0.22835   0.45047527  -0.55970289   -103.07486     2.305832    8.2233931    10.319147    699.65752
  456800    264.22101       0.2284   -1.0009679   0.80648744   -102.55181    1.8784285    8.1829588    10.319567    696.24566
  456900    315.84022      0.22845   0.38180591    1.6318307   -103.02439    2.2454054    8.2137448    10.319987    698.89352
  457000    305.21569       0.2285 -0.0049277235   0.24319895   -103.16258    2.1698723    8.2140446    10.320407    698.94749
  457100    357.08466      0.22855  -0.30631379   0.60420492   -103.45144    2.5386248    8.1817969    10.320827    696.23181
  457200    320.90021       0.2286   0.36622309    0.2008286   -103.52719    2.2813784    8.2213742    10.321247    699.62812
  457300     265.9466      0.22865 -0.025656351  -0.19966873    -103.3923    1.8906963    8.2251943    10.321667    699.98169
  457400    354.62272       0.2287  0.057901109   0.39137699   -103.83491    2.5211221    8.2032594    10.322087     698.1434
  457500    277.09654      0.22875  0.075259419   0.94582723   -103.30319    1.9699646    8.1263537    10.322507    691.62644
  457600    254.36093       0.2288  -0.52184847   0.59406495   -103.41363    1.8083302    8.0958518    10.322927    689.05849
  457700    296.00075      0.22885  -0.38840997    1.3311633   -103.57298    2.1043605    8.2654574    10.323348    703.52268
  457800    320.34811       0.2289   0.79608799   0.14947959   -103.46284    2.2774533     8.305068    10.323768    706.92293
  457900    330.25278      0.22895   0.35977468   0.57768853   -103.20997    2.3478687    8.2595162    10.324188    703.07419
  458000    357.67635        0.229  -0.33140028  -0.78704427   -103.02803    2.5428313    8.1756136    10.324608    695.96048
  458100    306.95735      0.22905  -0.81774464   -1.3940571   -103.26493    2.1822543    8.3307422    10.325028    709.19487
  458200    338.31198       0.2291    1.3652738   0.56305917   -103.69908     2.405164    8.2858515    10.325448    705.40203
  458300    268.17994      0.22915  -0.10723804  -0.55940759   -103.25558    1.9065738    8.1988046    10.325868    698.01983
  458400    310.81189       0.2292   -1.3042222  -0.19102164   -103.29355    2.2096574    8.1304325    10.326288      692.227
  458500    333.69026      0.22925   0.50049821  -0.71688935   -103.05453    2.3723068    8.3184075    10.326708    708.26005
  458600    354.27358       0.2293   0.27328666   -1.6483138   -103.29983      2.51864    8.3235719    10.327128     708.7286
  458700    288.72766      0.22935   0.63135507   -2.3670904   -103.54279    2.0526539    8.2117013    10.327548    699.23157
  458800    291.42934       0.2294  -0.86013801   -2.2436777   -103.55685    2.0718609    8.1464568    10.327968    693.70418
  458900     275.8998      0.22945  -0.14213436   -2.4766407   -103.34865    1.9614567    8.2173208    10.328388    699.76699
  459000    292.05133       0.2295   0.13422899   -1.3495453   -103.17209    2.0762828    8.2924442    10.328808    706.19304
  459100    313.79482      0.22955   0.17012488   -1.9034829   -103.20226     2.230864      8.34797    10.329228    710.95059
  459200    299.02904       0.2296    0.4223119   -2.5133981   -103.30074    2.1258895    8.2820283    10.329648    705.36338
  459300    258.40888      0.22965 0.0010547265   -2.5436219   -103.44373    1.8371083    8.1933769    10.330068     697.8415
  459400    285.28255       0.2297  -0.68205006   -2.7929991   -103.72414    2.0281615    8.2197096    10.330489    700.11276
  459500    312.91537      0.22975   0.26246431     -1.55383   -103.73971    2.2246117     8.240348    10.330909    701.89917
  459600    304.93282       0.2298  0.010111882   -2.2816771   -103.10935    2.1678613     8.334794    10.331329    709.97279
  459700    381.00886      0.22985   0.29223912   -2.3284665   -103.48375    2.7087093    8.2528031    10.331749    703.01725
  459800    300.88717       0.2299 -0.076079935   -1.9472259   -103.28723    2.1390996    8.2449037    10.332169    702.37288
  459900    305.96762      0.22995 -0.012213598  -0.67835165   -103.56132     2.175218    8.1946573    10.332589    698.12084
  460000    268.15733         0.23 -0.086053523   -3.3983542   -103.65862     1.906413    8.1787431    10.333009     696.7934
  460100    242.98942      0.23005  -0.72511545  -0.95244541   -103.72677    1.7274866    8.2782603    10.333429     705.3005
  460200    267.45039       0.2301    1.3393589   0.11108595   -103.44318    1.9013872    8.2977414    10.333849    706.98901
  460300    300.69135      0.23015  -0.54621424   0.80913144   -103.30268    2.1377074    8.1553232    10.334269    694.88286
  460400    319.99017       0.2302   -0.3858955  -0.84362387   -103.51757    2.2749087    8.1723636    10.334689    696.36311
  460500    259.60362      0.23025   0.28679296    1.0844949   -103.32364    1.8456021    8.2557404    10.335109     703.4962
  460600     264.1921       0.2303   0.33595872   0.61997145   -103.01565     1.878223    8.1858004    10.335529    697.56475
  460700     334.8097      0.23035  -0.87324191   0.87328318   -103.00688    2.3802653    8.1776819    10.335949    696.90125
  460800    326.80259       0.2304   0.33779837    0.6877599   -103.26164    2.3233403    8.3193036    10.336369    708.99904
  460900    287.86837      0.23045    0.7077079   0.92289518   -103.35602    2.0465449     8.295887    10.336789    707.03214
  461000    298.49173       0.2305  -0.28595789   -0.3502195   -103.59574    2.1220696    8.1131587    10.337209    691.48688
  461100    268.56145      0.23055   -1.1040152  -0.21903727   -103.52322    1.9092861    8.3270557    10.337629    709.74623
  461200    312.62132       0.2306    0.8664163  -0.86170178   -103.25285    2.2225213    8.3447715     10.33805    711.28512
  461300    360.23272      0.23065    1.2166751  -0.22495478   -103.24994    2.5610053    8.3149484     10.33847    708.77187
  461400    369.06989       0.2307   -1.6680744   -1.0082081   -103.58591    2.6238315    8.1321546     10.33889    693.21857
  461500    334.10029      0.23075   0.52743375   0.62152325   -103.76296    2.3752219    8.2112286     10.33931    699.98761
  461600    291.01661       0.2308  -0.57034808    1.1239673     -103.636    2.0689267    8.3000073     10.33973    707.58452
  461700    271.94552      0.23085     1.079097   0.36949393   -103.39836    1.9333445    8.2367122     10.34015    702.21708
  461800     306.0356       0.2309    -1.108099   -1.0718096   -103.25086    2.1757014    8.2485133     10.34057    703.25174
  461900    301.95263      0.23095   0.33785385  0.049124926   -102.78439    2.1466743    8.2781178     10.34099    705.80443
  462000    357.68207        0.231     0.808624   -1.2742241   -102.68226     2.542872    8.2783534     10.34141    705.85318
  462100     391.2376      0.23105  -0.76283791  -0.97481678   -103.39714    2.7814286    8.1935705     10.34183    698.65256
  462200    272.44397       0.2311   0.15702923   0.92236265   -102.97791    1.9368881    8.2432546     10.34225    702.91759
  462300    351.74618      0.23115   0.40075598     1.812541   -103.69937    2.5006719    8.1408287     10.34267    694.21174
  462400    287.18034       0.2312  -0.77024008   0.39546985   -103.64231    2.0416535    8.2471008     10.34309    703.30269
  462500    281.15858      0.23125   0.30256513   0.53573994   -103.63242    1.9988429    8.2055094     10.34351    699.78424
  462600    291.34407       0.2313   0.52715957  -0.63345096   -103.44915    2.0712547    8.2394402     10.34393    702.70647
  462700    327.46398      0.23135  -0.99621315   -2.2707057    -103.1715    2.3280423    8.2409242     10.34435    702.86158
  462800    328.75575       0.2314   0.94296886  -0.22228075   -103.08441    2.3372259    8.2531481     10.34477    703.93273
  462900    300.66236      0.23145 -0.076373296    1.3753188   -103.25009    2.1375013    8.1970933    10.345191    699.18005
  463000    316.55852       0.2315  -0.75121825 -0.029729432   -103.56257     2.250512    8.1918042    10.345611    698.75729
  463100    308.08836      0.23155   0.39963657   0.40872218   -103.61942    2.1902951    8.3138582    10.346031    709.19723
  463200    245.73611       0.2316   0.71953616   0.15755378   -103.32362    1.7470137    8.2941688    10.346451     707.5464
  463300    360.86317      0.23165  -0.29461858    0.6080701   -103.71528    2.5654874    8.0777963    10.346871    689.11639
  463400    327.17791       0.2317  -0.73751995  0.097091671   -103.13123    2.3260085     8.156028    10.347291    695.81858
  463500    315.34725      0.23175  -0.27265613   0.86411306   -103.19419    2.2419007    8.3046581    10.347711    708.52748
  463600    274.69822       0.2318    1.2577896  -0.36552865   -103.53283    1.9529143    8.2378818    10.348131    702.85887
  463700    245.04694      0.23185  -0.61076695   -0.5653062   -103.55692    1.7421142    8.2380673    10.348551    702.90323
  463800    296.59811       0.2319  -0.21609636  -0.21060783   -103.70252    2.1086073    8.1893698    10.348971    698.77654
  463900    261.91277      0.23195   0.44231214   0.12127489   -103.24602    1.8620186    8.2350265    10.349391    702.70082
  464000    349.07561        0.232  -0.53694802   -1.0279453   -103.38288     2.481686    8.2516095    10.349811    704.14444
  464100    339.16866      0.23205   0.26471731   0.40588417   -103.17581    2.4112545    8.2917579    10.350231    707.59918
  464200    293.22139       0.2321   0.49808457   0.16732113   -103.06511    2.0846012    8.2473332    10.350651    703.83665
  464300    331.79991      0.23215  -0.44422835   0.31318197   -103.60151    2.3588677    8.2269664    10.351071    702.12702
  464400    266.17504       0.2322   0.10831784 -0.077309821   -103.61323    1.8923203    8.2685024    10.351491    705.70053
  464500    240.03105      0.23225   0.11611437  -0.21742063   -103.39457    1.7064547    8.1969919    10.351911    699.62564
  464600    298.24385       0.2323 -0.062659205   0.16563728    -103.4565    2.1203074    8.1748797    10.352332    697.76664
  464700    299.46306      0.23235  -0.54951119  -0.37145458   -103.37548    2.1289752     8.200524    10.352752    699.98391
  464800     291.3094       0.2324   0.44750593   0.35387275   -103.37536    2.0710082    8.2555311    10.353172    704.70782
  464900    289.66966      0.23245   0.06061473    1.2606275   -103.36898    2.0593508    8.2843868    10.353592    707.19969
  465000    303.21848       0.2325  0.079423341    0.7268919   -103.36692    2.1556735    8.2004034    10.354012    700.05882
  465100     311.4852      0.23255  -0.44539138  -0.35156903   -103.31231    2.2144442    8.2702074    10.354432    706.04654
  465200    336.46316       0.2326    0.1115535   0.17119635   -103.37574    2.3920202     8.370319    10.354852     714.6223
  465300    309.95125      0.23265   0.63168365  0.094813267   -103.44089    2.2035389    8.3286836    10.355272    711.09649
  465400     291.9386       0.2327   0.11621929  -0.96274417   -103.61556    2.0754814    8.2181036    10.355692    701.68371
  465500    257.25784      0.23275   -1.3368691  -0.60267129   -103.80407    1.8289252    8.2477633    10.356112     704.2447
  465600    266.89403       0.2328    1.6935242    1.6262563   -103.83934    1.8974318    8.2162425    10.356532    701.58172
  465700    290.10589      0.23285   -1.0314537   0.64274521   -103.35368    2.0624521    8.1714014    10.356952    697.78105
  465800    338.93937       0.2329  -0.40381187  -0.37051472   -103.58149    2.4096244    8.2002887    10.357372    700.27623
  465900    294.32873      0.23295   0.44621326   -0.1378327    -103.3081    2.0924736    8.3412976    10.357792    712.34679
  466000     320.9477        0.233   0.90363052 -0.0071051978   -103.51509    2.2817161    8.1988765    10.358212    700.21243
  466100    322.40379      0.23305    -1.368238    0.3263923   -103.20947    2.2920679    8.1252116    10.358632    693.94933
  466200    327.88379       0.2331   0.13378919    0.8933918   -102.84552    2.3310269    8.3296415    10.359052    711.43791
  466300    346.37816      0.23315    1.3484014    1.6212211   -103.05587     2.462509    8.2349316    10.359473    703.37722
  466400      290.477       0.2332  -0.69038462  -0.85840172   -103.33156    2.0650904    8.1211076    10.359893     693.6832
  466500    269.15575      0.23325   -1.0149145   0.33968771   -103.30685    1.9135111    8.1197363    10.360313    693.59419
  466600     300.9235       0.2333   0.90542729   0.27106895   -103.27042    2.1393579    8.2634777    10.360733    705.90131
  466700    339.46453      0.23335  -0.19256923    1.5170588   -103.29199    2.4133579    8.2179342    10.361153    702.03925
  466800    260.00872       0.2334   0.36768116  0.025249322   -103.02923    1.8484821    8.2023406    10.361573    700.73553
  466900    266.94591      0.23345  -0.55583858   0.56525791    -103.4971    1.8978007    8.2517773    10.361993    704.98755
  467000    267.55427       0.2335   0.51380842   0.37558239   -103.50361    1.9021257     8.275628    10.362413    707.05389
  467100    330.10819      0.23355   0.26945109   0.75661864   -103.67981    2.3468408    8.1666155    10.362833    697.76835
  467200    289.37579       0.2336   -0.8589266   0.83348251   -103.18749    2.0572616    8.1508254    10.363253    696.44745
  467300    361.82634      0.23365  0.048497564  -0.10240924   -103.05621    2.5723349    8.2461662    10.363673     704.6224
  467400    346.10523       0.2337  -0.12167533   0.72443123   -102.91857    2.4605687    8.3333306    10.364093    712.09934
  467500    337.30009      0.23375     1.053643 -0.060699466   -103.38926    2.3979703    8.3284957    10.364513    711.71503
  467600    261.66831       0.2338  -0.51456544   0.30407376   -103.29394    1.8602806    8.2010242    10.364933     700.8503
  467700     290.7902      0.23385  -0.21433504   -1.2272143   -103.61429    2.0673171    8.2641997    10.365353    706.27783
  467800    278.93298       0.2339  -0.29620248   0.68430509    -103.4565    1.9830205    8.2565282    10.365773     705.6508
  467900    305.09235      0.23395    1.2699919   0.65968448   -103.19496    2.1689954    8.3259129    10.366193    711.60966
  468000    343.81832        0.234   -0.5435186   0.17900634   -103.06092    2.4443103    8.1336064    10.366613    695.20153
  468100    290.46582      0.23405  -0.90164606 -0.022991037   -102.94242    2.0650109    8.0805519    10.367034    690.69481
  468200    271.00963       0.2341   0.13159298   0.55901666   -103.29183    1.9266909     8.351572    10.367454     713.8895
  468300    317.59994      0.23415     1.114785    1.3881709   -103.64306    2.2579158     8.277502    10.367874    707.58669
  468400    274.15923       0.2342  -0.55773553  -0.61171623   -103.37828    1.9490824    8.1440447    10.368294    696.20654
  468500    282.97987      0.23425  -0.78356461  -0.91599549    -103.4408     2.011791     8.279643    10.368714    707.82705
  468600    289.23948       0.2343   0.91978007    1.9357489   -103.50242    2.0562925    8.3297781    10.369134    712.14196
  468700    304.68096      0.23435   0.74007462    0.1637778   -103.50211    2.1660708    8.1563926    10.369554    697.34687
  468800    364.86025       0.2344   -2.1290374   -1.7312489   -103.57188    2.5939039    8.1987011    10.369974    700.99251
  468900    372.87681      0.23445   0.98100793   0.56366554   -103.43225    2.6508961    8.3159583    10.370394    711.04686
  469000    308.90591       0.2345     1.236366 -0.037447141   -103.45462    2.1961073    8.2858309    10.370814    708.49955
  469100    270.46953      0.23455   -1.6877061  0.042274879   -103.51018    1.9228512     8.108531    10.371234    693.36718
  469200    286.34842       0.2346  0.061180429   0.34553751   -103.85561    2.0357391    8.2635624    10.371654    706.65266
  469300    273.64367      0.23465   0.52404079  -0.17140979    -103.7048    1.9454171    8.4426295    10.372074     721.9947
  469400    337.80921       0.2347   0.58867721  -0.78287317   -103.52136    2.4015897    8.2427208    10.372494     704.9275
  469500    288.76486      0.23475   0.30418498 0.0085381174    -103.0488    2.0529183    8.1353891    10.372914    695.77654
  469600    274.06541       0.2348   -1.6301076   0.52067506   -102.86731    1.9484154    8.1268223    10.373334    695.07202
  469700    333.76928      0.23485   0.46452088   0.19560831   -103.29997    2.3728686    8.2465288    10.373754    705.33885
  469800    311.83159       0.2349   0.73428224   0.79409761    -103.6068    2.2169068    8.2395365    10.374175    704.76932
  469900    275.61204      0.23495   -0.7575306   0.35978277   -103.69788    1.9594109     8.194856    10.374595    700.97595
  470000    241.54994        0.235   0.31243392   0.30172837   -103.39162    1.7172529      8.17911    10.375015     699.6574
  470100    257.33147      0.23505  -0.61688026   -0.8573852   -103.37878    1.8294486    8.3322669    10.375435     712.7876
  470200    295.48245       0.2351    1.2808484  -0.64962324   -103.54678    2.1006757     8.265026    10.375855    707.06407
  470300    270.70257      0.23515  -0.37695521  0.048366232   -103.21999    1.9245079    8.1449785    10.376275    696.82234
  470400    298.79977       0.2352  -0.55505691   0.49469768   -103.15966    2.1242596    8.1755346    10.376695    699.46481
  470500    363.33939      0.23525   0.14904907   0.25315837   -103.29258    2.5830916    8.1862396    10.377115    700.40903
  470600    382.03116       0.2353   0.24520108   -1.1467129   -102.87907    2.7159772    8.2523171    10.377535    706.09116
  470700     357.9982      0.23535  -0.52716687   0.28898492   -103.17547    2.5451195     8.277157    10.377955     708.2452
  470800    293.41421       0.2354    1.2724653  -0.33074974    -103.2497     2.085972    8.1943381    10.378375    701.18708
  470900    314.52594      0.23545   -1.4122096   -1.2689382   -103.66678    2.2360618    8.1710211    10.378795    699.22015
  471000    257.36913       0.2355 -0.010921114    -1.536082   -103.51877    1.8297164    8.2728753    10.379215    707.96479
  471100    261.26137      0.23555   0.91739622   -2.6212115   -103.41193    1.8573875    8.3428609    10.379635    713.98281
  471200    306.44132       0.2356  -0.41418409  -0.68397347     -103.121    2.1785857    8.3118866    10.380055    711.36082
  471300     337.1945      0.23565   0.62534653   -4.0796351   -103.27382    2.3972195    8.1813682    10.380475    700.21892
  471400    323.65424       0.2357  -0.97351438   -1.5892982   -103.34531    2.3009576    8.2467878    10.380895    705.84655
  471500    336.13186      0.23575   0.91920953   -1.0209825   -103.65252    2.3896649     8.217845    10.381316    703.39779
  471600    234.09753       0.2358  -0.53060319    1.9668038   -103.08598    1.6642715    8.1161694    10.381736    694.72308
  471700     293.6627      0.23585  -0.27612245  0.023575656   -103.41176    2.0877386     8.187869    10.382156    700.88874
  471800    254.90441       0.2359  0.080330416  0.083936523   -103.21997     1.812194    8.2849095    10.382576    709.22418
  471900    257.00191      0.23595   0.48423303  0.086776961    -103.2232    1.8271057    8.2567542    10.382996    706.84256
  472000    376.02761        0.236  -0.41407963  -0.33404986   -103.43956    2.6732961    8.3098084    10.383416    711.41319
  472100    373.57838      0.23605   0.34189937  -0.75423266   -103.28322    2.6558837    8.2299584    10.383836    704.60564
  472200    353.53056       0.2361  -0.14515812  -0.65633822   -103.49494    2.5133576    8.2920707    10.384256    709.95208
  472300    296.47027      0.23615   0.13848156  -0.69690959   -103.68391    2.1076984    8.2361428    10.384676    705.19217
  472400    283.60324       0.2362   0.33581402    1.7949469   -103.60003    2.0162228    8.1478659    10.385096    697.66197
  472500    322.28367      0.23625   -1.6071947   0.33647714   -103.65701    2.2912139    8.2148882    10.385516    703.42921
  472600     293.0342       0.2363    1.3897418   0.22963201   -103.23116    2.0832704     8.311153    10.385936    711.70102
  472700    334.70796      0.23635   0.53323251   0.42727375   -103.11787     2.379542    8.2156969    10.386356    703.55537
  472800    377.53921       0.2364   -1.5419155  -0.72344802   -103.24773    2.6840425    8.1528813    10.386776    698.20436
  472900    316.32973      0.23645   0.37541264   -2.4024536   -103.35414    2.2488855    8.2764202    10.387196    708.81277
  473000    321.83139       0.2365    0.1972634    -1.185205   -103.75832    2.2879985    8.3691381    10.387616    716.78235
  473100    308.95624      0.23655   0.58477878   -4.0372164   -103.80862    2.1964651    8.3136461    10.388036    712.05848
  473200    300.96614       0.2366  0.024893407   -1.1530878   -103.62487     2.139661    8.2147312    10.388457    703.61493
  473300    340.76397      0.23665  -0.92909969   -1.5958934   -103.35162     2.422596    8.2306738    10.388877    705.00896
  473400     287.0954       0.2367   0.34693247   -1.1783872   -102.81759    2.0410496    8.3381376    10.389297    714.24279
  473500    425.36725      0.23675   0.69814113   -2.0239758   -103.51501    3.0240668    8.2683084    10.389717    708.28987
  473600    382.22996       0.2368  -0.55040845   -2.1260778   -103.62916    2.7173905     8.267703    10.390137    708.26665
  473700    328.35488      0.23685    0.2138869    -1.741274   -103.68395     2.334376    8.2515969    10.390557    706.91547
  473800    277.13526       0.2369  -0.26794392    -2.218155   -103.52382    1.9702399    8.2776299    10.390977    709.17439
  473900    287.20708      0.23695  -0.49746268   -2.2919935     -103.507    2.0418436    8.3795254    10.391397    717.93316
  474000    296.47489        0.237    1.0831029   -2.4498909   -103.01602    2.1077313    8.3310637    10.391817    713.80997
  474100    336.50648      0.23705  -0.83470371   -3.6673089   -103.12178    2.3923282    8.3550377    10.392237      715.893
  474200    300.90118       0.2371   0.61023816   -1.4735025    -103.1883    2.1391992    8.3575732    10.392657     716.1392
  474300    260.77928      0.23715  0.077830458   -1.4111996   -103.25394    1.8539602    8.2971301    10.393077    710.98872
  474400    259.94451       0.2372  -0.37411056   -1.6265095   -103.37516    1.8480255    8.1882377    10.393497    701.68599
  474500    315.85241      0.23725   0.26677849    1.3101246   -103.76624    2.2454921    8.2217461    10.393917    704.58594
  474600    268.10771       0.2373  -0.62049931   0.45834514   -103.43438    1.9060603    8.2068441    10.394337     703.3373
  474700    327.22778      0.23735   0.55295672 -0.052219049   -103.22613    2.3263631    8.2434346    10.394757    706.50171
  474800    337.57929       0.2374  -0.55775602    -1.255614   -102.98031    2.3999552     8.280815    10.395177    709.73406
  474900    381.26656      0.23745   0.27676207   -1.8618212    -103.4174    2.7105414    8.3366773    10.395598     714.5508
  475000    266.76841       0.2375   0.03128204  -0.66728676   -103.23587    1.8965388    8.3038617    10.396018    711.76687
  475100    313.21551      0.23755   0.35654027  0.085244429   -103.60112    2.2267455    8.3861665    10.396438    718.85069
  475200    294.20559       0.2376   0.48763546  -0.93087695   -103.44478    2.0915982     8.227055    10.396858    705.24036
  475300    319.78436      0.23765  -0.72235545   0.76162918   -103.42767    2.2734455    8.1345204    10.397278    697.33628
  475400    315.69651       0.2377  -0.53188561    0.3588542   -103.11196    2.2443837    8.1818466    10.397698    701.42167
  475500    304.33571      0.23775   0.54015406   0.91043673   -102.65818    2.1636163    8.3210392    10.398118    713.38334
  475600    336.46135       0.2378  0.098804623   0.40610999   -102.63089    2.3920073    8.2288742    10.398538    705.51031
  475700    284.49416      0.23785    0.5576524   0.63634841   -102.97241    2.0225566    8.1793115    10.398958    701.28933
  475800    275.40121       0.2379   -1.0957957  -0.70815753   -103.32804     1.957912     8.111157    10.399378    695.47389
  475900    250.94609      0.23795   0.11827702 -0.097023477   -103.20096    1.7840531    8.2332846    10.399798    705.97398
  476000    327.78032        0.238   0.21182305   0.43653946   -103.51962    2.3302912     8.297924    10.400218    711.54531
  476100    316.48919      0.23805   0.54394043  -0.97846709   -103.34037    2.2500191    8.3305132    10.400638    714.36868
  476200    258.64028       0.2381  -0.51176406   0.20666405   -102.91677    1.8387534    8.2330993    10.401058    706.04363
  476300    358.33326      0.23815   0.15474786  0.051489578   -103.55739    2.5475015    8.2599341    10.401478    708.37351
  476400    310.82878       0.2382   0.18554355 0.0012370079   -103.74955    2.2097775    8.2468772    10.401898    707.28231
  476500    288.25172      0.23825  0.065304953  -0.34809817     -103.827    2.0492703    8.1448447    10.402318    698.55983
  476600       266.52       0.2383  -0.32250863   0.25000316   -103.40119    1.8947728    8.0877697    10.402738    693.69269
  476700    327.26852      0.23835   -0.7752003  -0.48090134   -103.48659    2.3266527    8.1900786    10.403159    702.49615
  476800    329.86086       0.2384   0.73553314   0.12810721   -103.40093    2.3450825    8.2783853    10.403579    710.09924
  476900     323.2058      0.23845     0.670282  -0.59473599   -103.61094    2.2977696    8.2751797    10.403999    709.85293
  477000    291.97432       0.2385  -0.70633687 -0.010246897   -103.63815    2.0757354    8.1556545    10.404419    699.62819
  477100    251.85911      0.23855   0.13820103 -0.032636136   -103.25225     1.790544     8.216198    10.404839    704.85034
  477200    306.78573       0.2386  -0.60074086   0.52581196   -103.36948    2.1810343    8.2396924    10.405259    706.89441
  477300    305.68609      0.23865     1.389156   0.94412848   -103.28811    2.1732166     8.235735    10.405679    706.58342
  477400    322.72451       0.2387   -1.3717067   -1.2690325   -103.62612    2.2943479    8.2246041    10.406099    705.65694
  477500    271.46958      0.23875    1.0591297   -1.6638285   -103.86079    1.9299608    8.2166401    10.406519     705.0021
  477600    253.23097       0.2388  -0.15477284   -1.2383196   -103.68004    1.8002969    8.0912125    10.406939    694.26821
  477700    306.74256      0.23885  -0.94128326    -2.241287   -103.71534    2.1807273    8.1268386    10.407359    697.35326
  477800      310.785       0.2389  0.096840637   0.25085899     -103.526    2.2094663    8.2686891    10.407779     709.5539
  477900    295.39851      0.23895    1.0620201     1.175957   -103.29811     2.100079    8.2800127    10.408199    710.55428
  478000    312.22738        0.239  -0.79180657    0.1683186   -103.14327    2.2197206      8.23934    10.408619    707.09246
  478100    339.07893      0.23905     0.463304  -0.61352258   -103.12796    2.4106166     8.246285    10.409039    707.71704
  478200     294.6793       0.2391  -0.32702569   0.61535584   -103.35788    2.0949659    8.3051158    10.409459    712.79481
  478300    283.94573      0.23915   0.58427384  -0.97530556   -103.54334    2.0186576    8.1518067    10.409879    699.66513
  478400    276.23953       0.2392  -0.70940171 -0.036765545   -103.59421    1.9638719     8.161875      10.4103    700.55756
  478500    262.48219      0.23925  -0.42565678  -0.47130003   -103.57161    1.8660667    8.2572072     10.41072     708.7688
  478600    268.92139       0.2393   0.85329288    1.4215495   -103.31103     1.911845     8.248883     10.41114    708.08285
  478700    312.36937      0.23935  -0.10860642  -0.47930537   -103.14548      2.22073    8.2917689     10.41156    711.79289
  478800    312.65182       0.2394   -0.1091735   -1.6985091   -103.10507    2.2227381    8.2568832     10.41198    708.82678
  478900    284.35715      0.23945    0.5820534  -0.35165747   -103.21232    2.0215826    8.2058125      10.4124    704.47094
  479000    253.65959       0.2395  -0.94596905   -1.4034816   -103.53548    1.8033441    8.2480196     10.41282      708.123
  479100    249.88841      0.23955   0.32566629   -0.2338803   -103.74737    1.7765336    8.2007308     10.41324    704.09148
  479200    267.17473       0.2396   0.40450338  -0.91315718   -103.62885    1.8994274    8.2838705     10.41366    711.25832
  479300    264.65629      0.23965  -0.72418859   0.41094149   -103.25658    1.8815231    8.2537054     10.41408     708.6969
  479400    307.04687       0.2397    1.0123552   0.19371213   -103.43358    2.1828908    8.2167976      10.4145    705.55631
  479500    286.90325      0.23975  -0.76893709   0.39271892   -103.36956    2.0396835    8.1742767     10.41492    701.93345
  479600    279.59306       0.2398  -0.23397193   -1.0382539   -103.45149    1.9877132    8.2395375     10.41534      707.566
  479700    339.35482      0.23985   0.62646329   0.32688787   -103.84102    2.4125779    8.2640325     10.41576    709.69812
  479800    315.64748       0.2399 -0.033215456  -0.41599958     -103.835    2.2440351    8.2572264     10.41618    709.14222
  479900    258.38134      0.23995  -0.17951387   -2.0995239   -103.55995    1.8369125    8.1778164      10.4166     702.3507
  480000    317.07308         0.24  -0.12298246  -0.47413194   -103.50662    2.2541702    8.2063307     10.41702    704.82807
  480100    278.03802      0.24005   -0.2856943  -0.17091962   -103.22533    1.9766579    8.2722067    10.417441     710.5147
  480200    316.91684       0.2401   0.63907277   -1.1087207   -103.57148    2.2530594    8.3375759    10.417861    716.15825
  480300    300.73132      0.24015   0.55565697   0.88886865   -103.49413    2.1379915    8.1999637    10.418281    704.36641
  480400     378.9697       0.2402  -0.75933056   0.47761057   -103.27753    2.6942123    8.0940119    10.418701    695.29333
  480500    370.22028      0.24025  -0.24790542   0.78547876   -103.19605      2.63201    8.1339344    10.419121    698.75092
  480600    302.06939       0.2403  -0.12456612   0.59349348   -103.26588    2.1475043    8.2992217    10.419541    712.97878
  480700    289.93758      0.24035   0.99602808  0.053961493   -103.29118    2.0612556    8.1537742    10.419961    700.51176
  480800    274.86894       0.2404   -0.6121143    -0.389873   -103.25281    1.9541279    8.1488171    10.420381     700.1141
  480900    271.03663      0.24045  -0.60051322   0.42688748   -103.49554    1.9268829    8.2128247    10.420801    705.64182
  481000    279.94541       0.2405   0.82538554    1.1448292   -103.83065    1.9902181    8.2935045    10.421221    712.60252
  481100    288.69493      0.24055 -0.079742581   0.54196942   -103.89766    2.0524212    8.2183604    10.421641    706.17438
  481200    339.35248       0.2406  -0.32924122  -0.15678685   -103.71971    2.4125613    8.1678963    10.422061    701.86647
  481300    266.65361      0.24065  0.031850933   -1.3657664   -102.96898    1.8957227    8.2974197    10.422481    713.02514
  481400    326.44988       0.2407 -0.057637053    -1.253913   -103.26632    2.3208328    8.2623502    10.422901    710.04011
  481500    275.28258      0.24075    0.9883475   -1.6024888   -103.26419    1.9570686    8.3242842    10.423321    715.39135
  481600    302.62286       0.2408  -0.27841163  -0.30558912   -103.95451    2.1514391    8.0864998    10.423741     694.9841
  481700    268.00263      0.24085   -1.1442016    0.1469433   -103.75293    1.9053132    8.1020766    10.424161    696.35089
  481800     254.7549       0.2409  0.045031249   0.76563027   -103.38444     1.811131     8.283125    10.424582    711.94019
  481900    293.61075      0.24095   0.86071513    1.1338067   -103.26765    2.0873693    8.3279571    10.425002    715.82237
  482000    325.62942        0.241   0.19709897   0.23650494   -103.38712    2.3149998    8.2210121    10.425422    706.65848
  482100    276.77617      0.24105  -0.45011139  -0.36680999   -103.27616     1.967687    8.1744819    10.425842    702.68716
  482200    256.24512       0.2411   -0.2457162  -0.12293883   -103.52862    1.8217255    8.1860426    10.426262    703.70929
  482300     270.2289      0.24115  0.070292922   0.66986522    -103.8534    1.9211405    8.2291017    10.426682    707.43935
  482400    240.32139       0.2412   0.19942034  -0.78542314   -103.70619    1.7085188     8.265012    10.427102    710.55511
  482500    296.50889      0.24125   0.17038557   0.59883673   -103.60614     2.107973    8.2489043    10.427522    709.19888
  482600     309.6266       0.2413  -0.10999209    1.0612111   -103.27982    2.2012309    8.2553477    10.427942    709.78144
  482700    340.21114      0.24135  -0.12316285 -0.011259856   -103.28622    2.4186657    8.2769385    10.428362    711.66644
  482800    293.75285       0.2414 -0.034601305  -0.64912828   -103.35787    2.0883795    8.3106026    10.428782    714.58973
  482900    309.24576      0.24145   0.69959559  -0.45606001   -103.78222    2.1985234    8.3013588    10.429202    713.82365
  483000    280.66123       0.2415  -0.20729208   -1.4628048   -103.52503    1.9953071    8.1509197    10.429622     700.9158
  483100    276.04877      0.24155  -0.93369076  -0.18323082   -103.40712    1.9625157    8.2007169    10.430042    705.22638
  483200    285.12244       0.2416   0.26874505   0.84886137   -103.28742    2.0270232    8.3455355    10.430462    717.70906
  483300    386.14376      0.24165   0.84855148   0.26413372   -103.26947    2.7452149    8.2567125    10.430882    710.09895
  483400    308.76711       0.2417  -0.23930787   0.29253977   -102.88101    2.1951205    8.1909131    10.431302     704.4684
  483500    377.39295      0.24175  -0.54467602    1.0101057    -103.6714    2.6830027    8.1722431    10.431722    702.89097
  483600    297.58633       0.2418  -0.39457859  -0.52798424   -103.72902    2.1156328    8.2841241    10.432143    712.54249
  483700    271.84603      0.24185    1.1800203  -0.89036729   -103.48314    1.9326372     8.360319    10.432563     719.1252
  483800    310.25966       0.2419   0.52013899  -0.14255775   -103.51921    2.2057315    8.2011058    10.432983    705.45864
  483900     288.9296      0.24195   -1.3702069  -0.70591572    -103.3411    2.0540895    8.0014163    10.433403    688.30908
  484000    315.14245        0.242  -0.59628479   -1.0916656   -103.15822    2.2404448    8.2220814    10.433823    707.31991
  484100    357.58419      0.24205   -0.4681603  -0.56750042   -103.30035    2.5421761    8.4460573    10.434243    726.61712
  484200    243.63322       0.2421    2.5054356    -1.193796   -102.86152    1.7320636    8.4599786    10.434663    727.84407
  484300    358.06412      0.24215  -0.52935111   -1.4989471   -103.61418    2.5455881    8.1772656    10.435083    703.54952
  484400    303.26155       0.2422    -1.141951    -2.600104   -103.62979    2.1559798    8.1470881    10.435503    700.98135
  484500    284.18906      0.24225 -0.013402624   -1.6420058   -103.52844    2.0203876    8.3057182    10.435923    714.65876
  484600    319.89283       0.2423    1.0569663     -2.00954   -103.78273    2.2742166    8.3383908    10.436343    717.49892
  484700    284.03681      0.24235  -0.12451946 -0.018697945   -103.48666    2.0193052    8.1152185    10.436763    698.32358
  484800    338.44908       0.2424  -0.38574382   -1.3762139    -103.4211    2.4061387    8.1327382    10.437183    699.85934
  484900    276.16692      0.24245   -0.7740534  -0.53209116   -103.01854    1.9633557    8.2225348    10.437603    707.61523
  485000    264.33786       0.2425    1.0350861   0.13811024   -103.41314    1.8792592    8.2724104    10.438023    711.93607
  485100    261.23136      0.24255  -0.06248025  -0.77845204   -103.84438    1.8571742    8.2380139    10.438443    709.00438
  485200    255.12006       0.2426  -0.27010525  -0.97551197   -103.65811    1.8137271    8.1408772    10.438863    700.67251
  485300    289.31535      0.24265 -0.084942008   0.73759978   -103.45285    2.0568319    8.2673428    10.439284    711.58585
  485400    257.35838       0.2427   0.12592167   0.93215284   -103.13546      1.82964    8.2319867    10.439704    708.57119
  485500    269.36182      0.24275  -0.03784638   0.16459705   -102.99179    1.9149762    8.2944536    10.440124    713.97678
  485600    325.33499       0.2428   0.20802112 -0.062066008   -103.40133    2.3129067    8.2649628    10.440544    711.46686
  485700    285.28197      0.24285   0.17026846  -0.36825926   -103.74363    2.0281574    8.1873315    10.440964    704.81254
  485800     258.9865       0.2429   -0.9558452   -1.3526789   -103.64334    1.8412148     8.269857    10.441384    711.94545
  485900    279.45746      0.24295   0.88320599  -0.26128656   -103.47304    1.9867492    8.3098381    10.441804    715.41617
  486000    317.15645        0.243    0.1581062   -1.0098345   -103.46629    2.2547629    8.2155652    10.442224    707.32842
  486100    298.80322      0.24305  -0.47924305   -1.9519791   -103.30202    2.1242841    8.1885462    10.442644    705.03055
  486200    269.23598       0.2431 -0.064495221    -1.155595   -103.46409    1.9140815    8.2682818    10.443064    711.92439
  486300    273.53525      0.24315   0.57566899   -1.7075302    -103.8625    1.9446463     8.195144    10.443484    705.65538
  486400    256.38608       0.2432  -0.65645117   -1.4801011   -103.68539    1.8227276    8.1978515    10.443904    705.91691
  486500     308.4627      0.24325  -0.28633398   -2.7071013   -103.47121    2.1929563    8.3406886    10.444324     718.2455
  486600     320.9866       0.2433   0.92595326  -0.38871112    -103.3671    2.2819926    8.3115278    10.444744    715.76315
  486700    298.11782      0.24335    0.1127276   0.85395452   -103.35668    2.1194114    8.2279756    10.445164    708.59639
  486800    270.89385       0.2434  -0.27450878   0.41933633   -103.30113    1.9258678    8.0874133    10.445584    696.51912
  486900    289.51179      0.24345   -1.1214158   -0.2877315   -103.66421    2.0582285    8.2006256    10.446004     706.2978
  487000    236.05605       0.2435   0.99854028   0.91643787   -103.72411    1.6781951    8.3395697    10.446425    718.29356
  487100    282.89107      0.24355   0.50589567   0.10503116   -103.85776    2.0111597    8.1970874    10.446845    706.04984
  487200    281.11347       0.2436  -0.83359378  -0.42766056   -103.41838    1.9985223    8.1473638    10.447265    701.79516
  487300    312.29762      0.24365  -0.47330049  -0.45649956   -103.47842      2.22022    8.2734894    10.447685    712.68797
  487400    303.19362       0.2437   0.90144546   0.78448115   -103.43196    2.1554968    8.3025428    10.448105    715.21943
  487500    227.58642      0.24375   0.16196058   -0.1881618   -103.05637     1.617982    8.2388448    10.448525    709.76072
  487600    302.41103       0.2438  -0.49077233    1.2533591   -103.49171    2.1499331     8.189513    10.448945    705.53924
  487700    371.89572      0.24385   0.63289049  -0.15963705   -103.76659    2.6439212    8.1493998    10.449365    702.11165
  487800    219.48923       0.2439  -0.90910986  0.095992832   -102.97896    1.5604165    8.2327734    10.449785    709.32322
  487900    279.96011      0.24395   0.32495613  -0.30479544   -103.49225    1.9903227    8.2497036    10.450205    710.81047
  488000    288.33318        0.244   0.41456966   -1.5888431   -103.55619    2.0498494    8.2747803    10.450625    712.99979
  488100    305.43481      0.24405 -0.063098055    0.2634068   -103.50452    2.1714301    8.1456757    10.451045    701.90365
  488200     374.9511       0.2441  -0.59776988    1.2334331   -103.66839    2.6656428    8.2122019    10.451465    707.66458
  488300    319.73686      0.24415   0.28314507   0.69911649   -103.35987    2.2731078     8.265722    10.451885    712.30516
  488400    258.24076       0.2442   0.26178453   0.57906469   -103.38853    1.8359131    8.2569843    10.452305    711.58078
  488500    276.90045      0.24425 -0.018668358  -0.24769528   -103.56209    1.9685706    8.1743275    10.452725    704.48579
  488600    374.32614       0.2443  -0.20450041   -1.4194059   -103.67595    2.6611998     8.213216    10.453145    707.86574
  488700    316.27892      0.24435  -0.18995533  -0.74304958   -103.02338    2.2485243    8.2378732    10.453566    710.01939
  488800    280.77688       0.2444   0.11748987   -1.1412141   -103.17531    1.9961293    8.2902541    10.453986    714.56279
  488900    274.37153      0.24445   0.22519944   -0.5877294   -103.64784    1.9505917    8.3225847    10.454406    717.37829
  489000    306.08834       0.2445   0.41214049  -0.58552572   -103.93067    2.1760763    8.1636501    10.454826    703.70695
  489100    283.44005      0.24455  -0.34205415    1.2406643   -103.69121    2.0150626    8.1401929    10.455246    701.71313
  489200     320.0391       0.2446  -0.84791072 -0.072504701   -103.50683    2.2752565    8.2137469    10.455666    708.08219
  489300     282.5684      0.24465    0.2532065    0.7428911   -102.88449    2.0088658      8.35209    10.456086    720.03725
  489400    328.79818       0.2447     1.475291  -0.15002043   -103.08722    2.3375275    8.2763972    10.456506    713.54041
  489500    315.26361      0.24475   -1.2431694  -0.72355938   -103.21972    2.2413061    8.1163116    10.456926    699.76692
  489600    244.54622       0.2448  -0.60711664  -0.87356993   -103.04361    1.7385544     8.264757    10.457346    712.59411
  489700    296.95595      0.24485    1.0641484    0.6486896    -103.4025    2.1111513    8.3797705    10.457766    722.53969
  489800    305.50297       0.2449   0.24203435 -0.055464982    -103.5713    2.1719147    8.2396829    10.458186    710.48927
  489900    276.84182      0.24495 -0.0046566266  -0.69648324   -103.65613    1.9681538    8.1019518    10.458606     698.6411
  490000    282.70677        0.245  -0.98171189    1.0500687   -103.74662    2.0098495    8.1421081    10.459026    702.13202
  490100    349.94314      0.24505   0.43070931  -0.56064869   -103.69628    2.4878535    8.2200285    10.459446    708.87992
  490200    302.90794       0.2451 0.0069047275  -0.24851322   -103.27819    2.1534658    8.2365782    10.459866    710.33567
  490300    311.45804      0.24515   0.24673062   -1.2200859   -103.34138    2.2142511    8.2580565    10.460286     712.2166
  490400    291.29518       0.2452  -0.63301309  -0.71308644   -103.26432    2.0709071    8.2207737    10.460707    709.02961
  490500    311.88875      0.24525   0.72879745    1.7855279   -103.52008    2.2173132    8.2905721    10.461127    715.07833
  490600    296.84786       0.2453 0.0017995086  -0.65024262   -103.53449    2.1103828    8.1933041    10.461547    706.71715
  490700    299.96237      0.24535  -0.72209315   -1.5625232   -103.69413    2.1325248    8.1743688    10.461967    705.11219
  490800    268.78771       0.2454   0.17574127   0.25149328   -103.44885    1.9108946    8.3147583    10.462387    717.25083
  490900    364.78495      0.24545   0.36657399   0.16109631   -103.54996    2.5933686    8.3208258    10.462807    717.80305
  491000    305.63606       0.2455   -0.2123835    -0.491324   -103.21516    2.1728609    8.3042042    10.463227    716.39793
  491100    306.99074      0.24555   0.90337975   0.70425557   -103.40075    2.1824917    8.2779851    10.463647    714.16469
  491200    313.04825       0.2456   -1.1235522  0.093909052   -103.49788    2.2255564    8.1526373    10.464067    703.37883
  491300     208.6221      0.24565   0.45531192   0.28418341   -103.25383    1.4831588     8.230652    10.464487    710.13815
  491400    251.28109       0.2457  -0.17060827   0.24292611   -103.56481    1.7864347    8.2077779    10.464907    708.19301
  491500    310.68207      0.24575   0.20729407   0.26113046   -103.51638    2.2087345    8.1576638    10.465327    703.89725
  491600    290.93822       0.2458   -1.1088737   0.38619809   -103.27749    2.0683694    8.2705591    10.465747    713.66726
  491700    263.51496      0.24585    1.3994982   0.23808438   -103.01656     1.873409    8.3756332    10.466167    722.76311
  491800    302.59697       0.2459   0.14940073   0.86013181     -103.163    2.1512551    8.2284317    10.466587    710.08907
  491900    318.56279      0.24595  -0.63561768  -0.61971516   -103.34801     2.264761    8.1188128    10.467007    700.65741
  492000    237.20796        0.246  -0.24779807   0.84030069   -103.31247    1.6863845    8.2096394    10.467427    708.52422
  492100    279.28033      0.24605   0.64721672 -0.041562801   -103.65099    1.9854899    8.1426552    10.467847    702.77142
  492200    297.83198       0.2461  -0.79445199   -1.9294345   -103.72782    2.1173792    8.2368753    10.468268    710.93184
  492300    327.19636      0.24615      0.59554   -1.0639668   -103.41474    2.3261397    8.2443118    10.468688    711.60225
  492400    346.81632       0.2462  -0.12833386  -0.07114864   -103.26934     2.465624    8.2383597    10.469108    711.11702
  492500    308.27189      0.24625   0.40434627  0.047795213   -103.32203    2.1915998    8.1600863    10.469528     704.3889
  492600    272.88376       0.2463  -0.56013434    1.2674401   -103.26232    1.9400147    8.1473815    10.469948    703.32042
  492700    311.35656      0.24635 -0.051972829   0.65693087   -103.44894    2.2135297    8.1888233    10.470368    706.92623
  492800    291.88984       0.2464 -0.039715917  -0.12710115   -103.15797    2.0751348    8.2235969    10.470788    709.95666
  492900    265.86201      0.24645   0.40818281  -0.18738577   -103.25927    1.8900949    8.2596831    10.471208    713.10065
  493000    301.85421       0.2465   0.37715099  -0.94092928   -103.62366    2.1459746    8.1846671    10.471628    706.65247
  493100    329.85412      0.24655  -0.51804604  0.098398128    -103.5679    2.3450345    8.1029467    10.472048    699.62491
  493200    308.32585       0.2466  -0.53376692   -2.2153052   -103.13211    2.1919834    8.2053532    10.472468    708.49532
  493300    290.85337      0.24665  -0.10795614   -1.5092814    -103.0018    2.0677662    8.3825516    10.472888    723.82464
  493400    282.03878       0.2467   0.64776395  -0.82719958   -103.34942    2.0051006    8.4276333    10.473308    727.74658
  493500    267.68887      0.24675    1.0257271   -1.3143162    -103.6639    1.9030826    8.2705937    10.473728    714.21448
  493600    311.66287       0.2468   -1.2272302  -0.79394875   -104.03042    2.2157073    8.1558438    10.474148     704.3334
  493700    251.56839      0.24685  0.031511047   -1.0791636   -103.58931    1.7884771    8.1805738    10.474568     706.4974
  493800     306.0641       0.2469  0.092307361  -0.53989224    -103.3101    2.1759039    8.2681954    10.474988    714.09328
  493900    318.78525      0.24695  -0.37746118  0.027712504   -103.17904    2.2663425     8.313046    10.475409    717.99565
  494000    334.52087        0.247    1.0987402   0.57106727   -103.31091    2.3782119    8.3098162    10.475829    717.74548
  494100    305.46254      0.24705    -1.168451   0.18202722   -103.45128    2.1716272    8.2392748    10.476249    711.68113
  494200    285.46155       0.2471   0.96241648   0.61887725   -103.74323    2.0294341    8.2670845    10.476669    714.11186
  494300    235.31632      0.24715  -0.22672412   0.79202829   -103.46242    1.6729362     8.191854    10.477089    707.64181
  494400    331.54714       0.2472   -0.1971571    -1.555435   -103.85774    2.3570707    8.1885796    10.477509    707.38732
  494500    302.28941      0.24725  0.083923202   -2.0347448   -103.63904    2.1490685    8.1940375    10.477929    707.88719
  494600    283.21865       0.2473    0.2495033  -0.42384408     -103.427    2.0134886    8.2078256    10.478349    709.10677
  494700    361.15558      0.24735  -0.41852777   -1.4203641   -103.59034    2.5675662    8.1349157    10.478769    702.83597
  494800    313.67325       0.2474   -0.2816672   -1.7538726   -103.15385    2.2299997    8.2764323    10.479189    715.09131
  494900    258.76654      0.24745     0.340375  -0.53322925   -103.32423    1.8396511    8.3161685    10.479609    718.55336
  495000    283.23496       0.2475   0.90392637  -0.97435461   -103.80551    2.0136045    8.2034952    10.480029    708.84631
  495100    225.00358      0.24755   -0.8189017   -1.2825654   -103.40788    1.5996198    8.0862068    10.480449    698.73968
  495200    291.54202       0.2476  -0.69485236   -1.5674656    -103.5659     2.072662    8.2202006    10.480869    710.34673
  495300    310.14022      0.24765    0.5634759  -0.51754123   -103.18652    2.2048824    8.3099976    10.481289    718.13529
  495400    342.69434       0.2477   0.18635399  -0.64169458   -103.51506    2.4363196    8.3507497    10.481709    721.68593
  495500    304.06518      0.24775   0.21282775   -1.1855157   -103.63944     2.161693    8.2367947    10.482129    711.86628
  495600    275.39448       0.2478  -0.10364786   -1.6710084   -103.67006    1.9578642    8.2380107     10.48255     711.9999
  495700    314.23357      0.24785  -0.36474789   -1.2175037   -103.83755    2.2339832    8.2261324     10.48297    711.00177
  495800    380.89104       0.2479   0.47333201   -1.0246085   -103.76124    2.7078717     8.192459     10.48339    708.11968
  495900    282.07791      0.24795  -0.43898524   -0.7457662   -102.72144    2.0053787    8.2181951     10.48381    710.37265
  496000    311.19507        0.248  -0.16459463  -0.25363501   -102.94684    2.2123816    8.1913622     10.48423    708.08161
  496100    272.47217      0.24805   0.49491593   -1.0520488   -103.18907    1.9370886    8.3121463     10.48465    718.55128
  496200    263.43476       0.2481  -0.18861939   -1.0147485   -103.42415    1.8728389    8.2439386     10.48507    712.68356
  496300    322.60183      0.24815   0.49696062  -0.97782518   -103.72521    2.2934758    8.1779352     10.48549    707.00593
  496400    331.41037       0.2482    -1.177536   -1.0305318   -103.74737    2.3560984     8.281097     10.48591    715.95324
  496500    234.92452      0.24825   0.86664491   -1.1495258   -103.09722    1.6701507    8.2976526     10.48633    717.41331
  496600     297.8098       0.2483 -0.060543523  -0.93917958   -103.28659    2.1172216    8.3054283     10.48675    718.11436
  496700    300.99879      0.24835   0.27151472   -1.0091919    -103.1144    2.1398931    8.1904084     10.48717    708.19774
  496800      357.693       0.2484  -0.03672847  -0.67184378   -103.48241    2.5429497    8.1497859     10.48759    704.71346
  496900    271.20631      0.24845   -1.0303826   -1.2584241   -103.47649    1.9280892    8.2106708     10.48801    710.00663
  497000    267.95736       0.2485   0.84987143  -0.51364772   -103.62908    1.9049914    8.3081131     10.48843    718.46159
  497100    283.46198      0.24855   0.25899598  -0.82403978   -103.66697    2.0152185    8.2353052     10.48885     712.1939
  497200     370.4893       0.2486  -0.52118756    -1.674012    -103.8135    2.6339226    8.2040511     10.48927    709.51944
  497300    349.53591      0.24865   -0.2918905   -1.4336668   -103.22784    2.4849584    8.2866945    10.489691    716.69548
  497400    328.65321       0.2487   0.60701706  -0.90419744   -103.11051    2.3364969    8.3210715    10.490111    719.69748
  497500    240.90062      0.24875  -0.11930261  -0.50842342   -103.21006    1.7126367    8.2606406    10.490531    714.49936
  497600    316.39285       0.2488   0.44348897   -1.6272958    -103.8452    2.2493342    8.1986025    10.490951     709.1618
  497700    282.28122      0.24885  -0.97629579  -0.39881968   -103.63287    2.0068241    8.1883263    10.491371    708.30129
  497800    322.79899       0.2489   0.90135645   -1.1442187   -103.58558    2.2948774    8.2228808    10.491791    711.31878
  497900      330.042      0.24895  -0.50553561    0.1519792   -103.27744    2.3463702    8.2351429    10.492211    712.40803
  498000    318.44423        0.249   0.52408957   -1.1484332   -103.26317    2.2639181    8.1942892    10.492631    708.90223
  498100    271.20467      0.24905  -0.69487374   -1.0471418   -103.66602    1.9280776    8.1513045    10.493051    705.21178
  498200    265.36385       0.2491    0.2110127   -1.9464203   -103.64931    1.8865534    8.2293503    10.493471    711.99244
  498300    289.59913      0.24915   -0.2301365  -0.83624293   -103.49936    2.0588494    8.2667348    10.493891    715.25552
  498400    328.44479       0.2492 0.0084555942  -0.58166355   -103.53107    2.3350151    8.2891328    10.494311    717.22215
  498500    317.13531      0.24925   0.90060127  -0.25734326   -103.36787    2.2546126    8.3105397    10.494731    719.10317
  498600     305.3335       0.2493  -0.59283365   -1.4643716   -103.61892    2.1707099    8.1963178    10.495151    709.24805
  498700    291.97799      0.24935   0.18626503   -1.0329406    -103.8229    2.0757614    8.1541029    10.495571    705.62333
  498800    253.03505       0.2494  -0.92547118   -0.6986018   -103.51639    1.7989041    8.3303396    10.495991      720.903
  498900    324.28548      0.24945       1.1816  -0.27587276   -103.49096    2.3054454    8.3044504    10.496411    718.69132
  499000    285.58215       0.2495  -0.15703273   -1.7143591   -103.19405    2.0302915    8.2468781    10.496832    713.73741
  499100    279.91099      0.24955  -0.38086435  -0.88977436   -103.15937    1.9899734    8.1491376    10.497252    705.30655
  499200    325.00633       0.2496   0.12704766   -1.4641381    -103.3624    2.3105701    8.2661052    10.497672     715.4587
  499300    355.87721      0.24965 -0.016560999   0.44010028   -103.30856    2.5300407    8.2322811    10.498092    712.55963
  499400    365.83859       0.2497   0.39686334  -0.44124281   -103.07917    2.6008592    8.1549306    10.498512    705.89266
  499500    296.19335      0.24975   -1.2731487   0.55739962   -103.10761    2.1057297    8.2507921    10.498932    714.21904
  499600    255.15546       0.2498    1.3888795   -1.5103898   -103.14968    1.8139788    8.2616471    10.499352    715.18729
  499700    264.81107      0.24985  -0.18966384  -0.50141027   -103.33757    1.8826235    8.2649919    10.499772    715.50547
  499800    304.10438       0.2499  -0.29457708   -4.2362532   -103.71474    2.1619717    8.1374008    10.500192    704.48801
  499900    313.48671      0.24995   0.12078259   -1.3010057   -103.69879    2.2286736    8.1609582    10.500612    706.55574
  500000    356.29816         0.25  -0.71658785   -2.1266558    -103.4775    2.5330334    8.2870141    10.501032    717.49805
  500100    329.79243      0.25005   0.49660086   -1.8375137   -103.05899    2.3445959    8.3297053    10.501452    721.22314